008f50d162c632ef1c15e04ed45697167ac5d705	1256391890	45	MDYD777
00b77c23c58646de9e587a91aef7b34ae58c360b	3639166834	1	Vixen.19.11.05.Skye.Blue.XXX.1080p.MP4-KTR[XoX]
00a4d08268a9cce3e88ea3c47e7fd048902ba51d	8231094611	43	Trois.Couleurs.Bleu.1993.Criterion.DVDR-zmd®
007398414538fadc30cee25b995f4872b63fbd5d	84138885	1	Alli Rae Marry Lynn A Gift For You HD Porn
00e68b862030f41deda08f2b7350971bae4f3079	307050874	2	Industry.S01E04.WEB.x264-PHOENiX[TGx]
003ce5fe8d63827158aedd9459845be1c2c5da7e	14553590	21	[Granada Sky (Mogiki Hayami)] Tsuyatsuya Body no Rindo-san [English] [MintVoid]
0006c6b218a4cd376fdfd0e5c378903f27d76985	524643	1	Blake Crouch - Wayward Pines 01 - Szum.mobi
0011fe74b871c918b92bad1882077b7120ddca88	1306771034	2	Gold of the Seven Saints (1961)
002b284f10467783b4a22616ab0cc1bbe131ca98	17174733	2	DVDFab VideoCruise 1.6.3.23 (x86x64)+ Crack
003c507baaecde4ffc42e8b4fe26c7e82f1891b2	3145728000	16	WindowsVistaSP2x86AllinOneItalian
00cfab1c1dc8e2a4d3a069a7aaef4208376cf9b7	8297431	5	Adobe Acrobat Pro DC - v2020 006 20042 Final + Patch
00e71d5212ec2433ff52738b1cf67dffebd482be	1290309414	33	29.Sexual Encounters 2
001cf22456d751f7dff1abd488e3a5366a64d2fa	1807185	1	lauren weisberger - the devil wears prada.pdf
00f20ab6d675c4dcac951e6ab3f79ccdf0770dfc	64939179234	99	Live video
01d39f473cae7d5a1f0a8525e71256df0ac3953e	5542888	5	How-the-Mind-Works Omnipotent-Government-the-Rise-of-the-Total-State-and-Total-War-1944-Ludwig-Von-Mises
017ef25aa26cb2d9881b000fafcff56fefd88055	590826432	639	国产换妻俱乐部私下流出高清+小雅VIP视频菊花灌水从黑木耳喷出 果然劲爆
0105163e4cbcb8d063751605b6b05afef8f2037f	382398878	1	EuroSexParties - One Pussy Two Sticks (anal) (2014).mp4
011f33a666e8595c47b0a3fdc085e7eac55d73a6	7789403	5	Far.Cry.4.[v1.5].Repack-R.G.Mechanics
010739498cce910d10dcdb019a8f41b05fa559b5	4266697983	1	[DickDrainers] Eliza Ibarra.mp4
01c1af81c739e8cac2ced1711107309ab5c38ec7	7790195	5	Serious Sam 4 Digital Deluxe Edition (v1.01 HotFix)
0199382e98fcfae16e90a5bd1f6e15691055a5c8	990217069	1	Dune.2020.1080p.HDRip.h264
027b5d2a47e1a909050caeb4c40d665bc1bc6911	437735337	1	[RSS] 28.08.16 Deep Dicc and Julius Caesar.mp4
029bac4ac7e2dfc30b4e1b78de566710941a5f25	137771368	1	Best Gushing & Squirting Compilation Sweet as. Vol 1
02ec201865ea61b6dad9b9ce037eb1697fdc5926	699537096	2	谍海追踪21-22集720P电影淘淘
02fc9f788b4fc9d6982bd89362c8d4b27da5eb26	46522675	1	[Commie] Teekyuu - 25 [2427F771].mkv
0293cd43d679479037a911f4a9328855055caa27	1929401155	1	我们都是这样长大的.mp4
025a3b510decbc594483ca37bf04631dd341252e	2421634704	1	Рикша [Qun long xi feng, 1989].mkv
0245195d52b2bcde0b496f0c634dfc56b19dfa2f	4299933226	108	sw675
02f6877cb5f82e5dccad9807606a478c3f209c31	90856693	4	50 Plus Volume 20 2017 - superunitedkingdom
0204843ad36b49831b1405ce2c8a4ccc24a4ab50	4858949660	1	SPRD-1351.mp4
021487ef06d2587d0a58577e3cc193f7b57e7978	1327259083	23	Cathy Heaven - Strict Bitch
02a7aa7f401d2855d4b838fad31bd78112594da9	7962399	5	Tuneskit Video Cutter 1.0.3
0295b80299d63281c1d30608e7678e7915ee64b0	17174698	2	Virus Crashers
029a3d7acc78d2d67717b62ed1c1af96401e45b5	1867108658	8	heyzo_hd_2414
027ec696789c75026919f2edb305d32203122dba	295909098	1	[HorribleSubs] Dantalian no Shoka - 02 [720p].mkv
022ddc5e3a541150ede9767c39d89e91cd571de6	7787407	5	Divinity Original Sin 2 - Definitive Edition
031efd2664a9611979baf352971e3953f7bc7724	592635569	2	心宅猎人11-12
038cfec8a858d29a3b66e1236ee64988b98ecd2c	1222283707	23	011609_749
03c98ffe5b054bea9ff48bef7f13af3698080035	519706382	6	Private Eyes - Temporada 1 [HDTV][Cap.108][Español Castellano]
03845622dfe0a6acd98ae0491e845072244aeb45	265682677	1	Jeff Brown - The Winners Brain
03cd85e34baa896c9d30959d1abc66ddfb42346f	435987314	1	Stormy Daniels - Sex Therapy.mp4
03ebdcdf367b3dab1b0b8a3b129c527c6f4a0e96	7787060	5	Age of Empires Definitive Edition REPACK-KaOs
03cadada8eefc6e6f027b7aae2e15bd042cdc89f	4078145247	35	H0930-ori1001-FHD
03eade0b5c3d2459fac20583f79035d2cd460ab1	125624333833	268	Red-Dead-Redemption-2-Ultimate-Edition
03adf10d7acc2c60abf2d750fb14cac940cb4bbc	1710444983	1	www.MovCr.tv - Puriyaadha Pudhir (2019) 720p UNCUT HDRip x264 [Dual Audio]-[Hindi + Tamil]- 1.6GB - MovCr.mkv
035359d78b4fb3a6bccac922c9c8f82ab56fa9bd	7786955	5	Minecraft 1.16 Cracked [Full, Cracked, Online, Server List]
0376eb124fe4201563ecc47c5cf693c1e8d200cb	387248690	264	Lee Child - Jack Reacher Book 6 - Without Fail
03a38e71a0e4c040e4b31edaa96b8595c11172cc	7961974	5	iSpring Suite v10.0.0 Build 712 (x64)+Fix
03242c63af965e5ddc7dd660c88eb9a557a297e0	480510197	13	im520@SIS001@ABP-025
03c68a64268ccb1a601373faf1c332c0edaa67eb	7788431	5	Iconoclasts v1.15
030a80537ee9edd558f8e16da492044be36e39f8	1861570231	6	Carib-041120-001-FHD
0334c4c0fa4b509bf786a4cbdea5fc4d2302a5ff	146020574	1	Guide to safe navigation.pdf
04c641fb950a739883e03631e7444eedf97f1b19	2362496	4	I Was Here by Gayle Forman (ePUB+) REQUEST
045eed89d2efe96b6e0b4a3261f345bfd871a72f	1119708997	8	RED154
04df00dcf08fcc5dd01eadb6a2090b1e415aa156	2722187101	1	Liverleaf.2018.1080p.mkv
0495b52b4efcb67faeffe200fa40b8ee3d74695a	7788915	5	Stoneshard
04b6c2b32963c205f95c5f4a46498aebcc445571	5896267776	9	Перевал Дятлова (SatRip)
04470624e5c60dd8321725416e8e58152d599874	764339987	1	Leah Dizon(莉亚迪桑)最全套图3741P@kinglale.rar
04992189c27ab3969b4f12670e5aedf332f86795	33631920	1	Fitness Frenzy
04e41f36d42aa3db7a7da074e0d34ac62f738d98	158279	1	Double Down (Bedlam Butchers MC #4 - The Motorcycle Clubs #14) by Ruby Dixon .epub
04c252a8545976d96224c005953403958212df9f	8222251008	20	DVD_1
042326c7d87c7689361ccf32dbcb3d5cc49612a3	670697090	4	Sister.Wives.S12E11E12.Meeting.Mariahs.Girlfriend.HDTV.x264-CRiMSON[rarbg]
040e144d97f551c0cb65890f3b4d6df2001d2bb7	424999871	1	[JWTIES Clips4Sale] Mia Li (G.I Creampie... From My Uncle) HD 720p [Incest Roleplay].wmv
04a16908d417a8fb5bbc344231668f364d36e5e0	583429547	1	同心同行EP2.mp4
05a58f9f5142ee7c7bd1d313be3bd1dff37cb405	334135733	571	2020-11-27漫畫3
05a408559428f04cd26d568f9d956edc0edda51c	265757540	1	果贷最新出炉微胖萌妹一对奶子真大 逼也很肥美
059bb05db77d35522bb97207229dc0516332f821	17174670	2	Internet Download Manager IDM 6.38 build 5 incl Patch 32bit64bit
05262075888492abe8e2e651396637ffd920ec37	2170184184	16	SPRD-1348_2K
05325e01f22f94d185f54f5732a8a04684029b5b	7959074	5	WINDOWS7 SP1 ALL 9 VERSIONS IN ONE (1) ISO DVD USB (ENG)
055140ae796853104fc8eb22d937bf74c65bfc69	133836328	14	A Tribute To Blondie - Platinum Girl (2000)
050165587a6e0f0fed72f04ffc8a050e65e6d66c	7960431	5	Bass Box Pro 6 + Updates
050158022bdae2f6cc45f0ce9938dc53e0b50474	368402710	1	Chicas.Sin.Control.1x04.HDTV.XviD.[www.DivxTotaL.com].avi
050b4422a6cd53bf6de673e82190e816a938687c	2261812070	3	[哔嘀影视-bde4.com]速度与激情：特别行动.2019.HD720P.X264.AAC.English.CHS-ENG
05e60e5123635235e5a09e83c8ad37576a7cfa90	249823543	7	[MP4]【FC2PPV 888449】 无毛雪肌素人美少女中出【超清剪辑版】
054fb1af65bbd2fc256900728f1d7df57e57419d	7962996	5	TomTom Navigation v1.8.14 [johdrxrt]
055c4e14da539e7511521fc659a189356f9c4fac	294529559	2	Industry.S01E07.WEB.x264-PHOENiX[TGx]
0585538f44fcc710353175899dbb1620869232b8	15592325120	162	AFeiticeiraBewitchedSeason8
05ac10d10ebd064fd515586b0b137476b8f184ce	7960846	5	SQLite.Expert.Professional.5 [johdrxrt]
059e816d7aba570b4f24866846cad161a6d263f4	1155012537	2	Khol De Meri Jubaan-DBBians
06424c94401b7d42d111d4c78e8ccb7f9a075604	370340336	1	[DiaryOfANanny] Avi Love (15q.mp4
0697218e4ce411ae4f663dc02ace4c4ce49ab204	1807463153	3	MUM-164
06a26d7fdac7573ff02f52848fdcfc0cc650f11e	58591840	1	7005049.ts
0602ce4ccfe267ebc6b7d1db322183b249336d3d	1794366247	4	zm112714.IPX-572-C
066aed0f70ccff40bd32e7b880e0f9b54da70c65	964351756	13	ADSR Sounds Next Steps With Kontakt TUTORiAL-SYNTHiC4TE [oddsox]
06f80749edc752a40813443265cec0a1f8ecac72	413600513	4	[ www.torrenting.com ] - Running.Wild.with.Bear.Grylls.S01E05.480p.HDTV.x264-mSD
06d782da0bdfadeea998a6554fa22cd07f19f392	1991064733	1	The Padre 2018 1080p WEB-DL DD 5.1 x264 [MW]
06725e5f67ad28e09052492971f49c37fd795995	713763103	8	www.Torrenting.org - Thunderbirds Are Go S03E13 SOS-Part Two 1080p HDTV H264-DEADPO
060323972f54546f0314c7fcd44c1e471d9efc97	7963353	5	Pattern Piano full basic course
063ceffecf81c2ed4d765cdc243e1b3198f9f2c0	7963973	5	Klanghelm.MJUC.variable-tube.comp.v1.1.WiN.x86.x64 [x.rObel]
06401f3b974b60290e1a7050448ab0b7a2e4cae3	1832104462	1	1o minut0s.rar
0637c1b85f27801690724890afcb99d05c8edafb	52197354	1	Teen Molly Mae Fucks Old Man.mp4
07ad4a12e9bcbfaaab700b5e0ad83fae6bfd9712	2050332031	1	FuckedHard18 - Callie 720p NEW August 03, 2013.mp4
077ba4483481ea4386f9025af4f78c661d06313b	7961480	5	CyberGhost Cracked PREMIUM
0709088ff2d39c58a71d1ede79c4df54705c183c	11796576	33	[SS-BRAIN] Koibito ja...nai. Suzuhara Kaede Hen | Not My Lover - Suzuhara Kaede [English] {doujin-moe.us}
07ce71f15d70a12d11bc76b1c3959b3edad1309f	3168340	1	Albert Camus - Śmierć szczęśliwa.pdf
0735ee0615cb69ae4b5a7078abd9879767f7bba1	75884544	14	Saigon Kick - Water
077a1f0fdbb1346fba06c7ae5cf47bade777debe	1498705674	26	SKI MAGAZINE (FRA)
07378f0968a8e73cbb9791173ca93345cacffbe3	417147	1	Perez, Leandro - Las cuatro torres [21356] (r1.3).epub
08611c1b85643ddf5c05044440a999e83a96aa46	1075564556	5	Charade [1963] BRRip XviD - CODY
08421cd7af65eabc5201e81c30e1f0cec66a726d	7790362	5	Rising Lords v0.1.11
08ae42109cdd21f62a8cfd656d30753e9d70d593	1486675968	1	Novogodnie.prikljuchenija.Mashi.i.Viti.avi
0918d96fa249dc36841035a793f5c0a4985a1a08	394273018	7	欧美无码Jessie Volt
093636df7b4a36b19c977d3131820916fcc14215	7961783	5	EndNote X9.3 Build 13572 Final + Serial - [haxNode]
09dcc46ab53527aeee12f399c6bd905a5de52620	5050692124	24	페르소나-더골든-
0926d31505b98fccd71cd701faaa0a4378897221	401717775	22	[完]기동경찰 패트레이버
0927bad7fb4353a6686dc4d5b991a93a94bcd444	11845914166	56	russ meyer collection
09fbd0ed4a08786cfe7ad10a264b157df3f5be67	1218219026	2	Brazzers: Phoenix Marie, Aleksa Nicole, Ariella Ferrera (Brazzers Live 40: BIG WET BUTTS LIVE) [XXX] x264
0993e2ae4ac2362767d3c4b908026d2fd1f73f68	406273270	4	Will.And.Grace.S11E12.iNTERNAL.720p.WEB.h264-HILLARY[rarbg]
0913297a249594f80669f7c0254c01900663c279	7959404	5	ZIP.Password.Recovery.Magic.v6.1.1.175-BEAN
090866fd55bb21c2bb66b34362e54fa2fe86c3a5	734740480	1	Tainye.znaki.Tretiy.reyh.Operaziya.NLO.2006.XviD.SATRip.avi
09c8545e49beec58ef2abba8407c1c7fe26a25b0	252107773	1	X-Sensual.20.09.21.Bloom.Lambie.And.Nata.Paradise.Photo.Session.Teen.Threeway..480p.MP4-XXX
098d6beaf8d1a5157e7e82575d7dcad7069e07b4	1731301350	1	buffy.the.vampire.slayer.s03e21.720p.web.h264-nixon[eztv.io].mkv
0972f3880298acd959c29431364d89ddcce4cbd1	17174734	2	WindowManager 7.5.6 incl Patch
098021c27d53a86ebdc635019b72b223b64bd3d5	26602828	1	Animals - Bring It Home To Me (Live Hullabaloo 1965).mpg
09bc970f8add23343248ff083ffa3b778ff40ce5	7464951	1	Badiru A. Data Analytics. Handbook of Formulas and Techniques 2020
09a80af5fe957f41443040f6c6628380d43c97f9	1040412848	26	[ www.Speed.cd ]-Blood.Relatives.S03E08.Duct.Tape.Divorce.720p.HDTV.x264-TERRA
0a1c9d11e02ad623b3b3f4afaaa95503cc282805	1400898849	2	The.Vigil.2020.HDRip.XviD.AC3-EVO
0a56f09811a3fbf8350dd100f7c7058c36da0619	1020284588	1	SexyMomma.17.10.03.Gigi.Allens.Nina.Hartly.And.Penelope.Stone.XXX.1080p.MP4-KTR
0abd7ff8defe29d3e494ce76382f433dafc2162c	1251178647	1	My Sisters Hot Friend - Dee Dee Lynn HD 720p
0a4ed94513e28649edb4795af9dc4821eef3f259	1387567595	1	bkb17852-720p.mp4
0a85c536319d7b07ccc0920f5ca2811d6a698f6b	4458665825	38	H0930-ori1012-FHD
0aacfe0034064e9ac17250f7b058efb4c1233376	7959843	5	Pro Landscape 12
0aebb17c64938dccf7665e206d1d785a9c5cc988	1013728	1	Molla, Marius - Lherencia de la terra [58170] (r1.0) [CA].epub
0a46282c7cdab3b43b03c3495189bd9847684497	17174742	2	The Sojourn (v1.1, MULTi8)
0a7f82c19d131c055cd463a18f407b188eea9bbd	463605318	1	[LegalPorno] Kyaa Chimera, Sweet Hole GIO1174 (15.09.2019) rq.mp4
0ad7aa3d2a789f52a61f65c6bc3ddfdddd31fdc1	1101149231	25	heyzo_hd_1371_full
0a3da961e8366b63349e2add047501499d4b93dd	1475162112	1	chelovekoyadnie.2005.dvdrip.avi
0bbb7fc7c8f4f67e8d1035bc51be226e2c463a29	1053213157	45	PPPD-356-MP4
0bc49158f688d2aee3764a4d8987f6765e11df4c	39819741	1	[ハードボイルドよし子] おしかけサンシャワー 第1話 (永遠娘 7) [中国翻訳].zip
0bbad67a56467a6852c7b4936a3efe9987f7cb59	1213329049	2	[DL] The Silver Linings Playbook {2012} DVDRIP. Jaybob
0b48cc6a9b3db84a9acb902dbf59dcc5f807315a	4907049263	1	Conference_WEB-DL_1080p.mkv
0b4c43445d394004daaddceca6817af16feabd7a	1267695616	1	RBD428.avi
0b0d730def1dd4ebcfa66d720e27c43d27f6447d	197374125	16	看片神器（www.mm8368.com）约气质女老板衣服还没脱完就被爆操直接要干飞起来的节奏蜗牛影视
0b1af1af3f76ccb0f884ca136b964d146ecdf788	298282799	91	VA - Hard Bass 2017 (2017) (Opus ~128)
0b65335d7e1061c2a2770b17be84c2c34ab8b995	95524955	13	June Tabor-Ashore.2011
0bd26253a1542ae9f1576c05470ac60fa98463a6	712291988	7	olo@SIS001@ktra-064
0bada3bb539f47a25deb6f7d6f02e3466f0159b6	1224152314	3	BrokeModel.15.09.10.Melody.And.Cici.XXX.1080p.MP4-KTR[N1C]
0b1e234984a1f65efd21bc16e08bc2b9b1c50fc4	635291352	4	Pawn.Stars.S12E35.Pawning.Pistols.720p.HDTV.X264-UAV[rarbg]
0bbad97f93e6d9ba09d1cb3a826d90d568b629fb	332377	1	Si tu fermes les yeux_. - Fanny Marsala.epub
0ca6294a88cc6682644f2ee958256132ff421100	1816995811	2	DarkX.20.11.26.Vanna.Bardot.Vanna.Craves.Isiahs.Cock.XXX.1080p.MP4-WRB[XvX]
0c5b6e80110c0be2b01f13cb10304b3d9fd9dd0c	1856310882	1	DVDES-844.mp4
0cd6867a804b2ca3cb1a4b237be01a8763e89012	293203083	4	The.Holzer.Files.S01E03.A.Grave.Revenge.WEBRip.x264-CAFFEiNE[rarbg]
0c68e084dd381b45fe1303c2d4aea3d7cb326f2c	200174590	5	Wondershare Dr.Fone toolkit for iOS and Android 9.6.2.23 Multilingual Full With
0caa41b2ca074a43566b746725130e60fb5a1d5f	3753880187	1	Les_parfums_WEB-DL_1080p.mkv
0de2c61907934ebea4f3a42ec5075eeb25b6446b	7789968	5	Plague.Inc.Evolved-PLAZA
0d7f84ce6e228e681dfb4cb92acab7f4fc9f676c	6131588183	12	SMoKE 2018 Patch X20 (10.2.0)
e3c08ea2eb7e4d8d6b3f2c40d71032aec43f3fe9	44460343	1	Maze Lord 1.1.5.exe
0db431993d71ed9b14937f191be787c228afcca1	240203838	1	mynaughtyalbum.17.08.13.kattie.hill[tk][480p].mp4
0d85704da1e24214f3c1c3412e33fd3078c559f2	84552085	44	PlayboyPlus.com_16.01.11.Cindie.Louu.Royal.Blue.XXX.IMAGESET-GAGBALL[rarbg]
0ddfa8042ef215791f7892bc2e8849f6cba7c7f2	728593820	1	Faccia di Picasso.avi
0d238b4864eec7a638dd8f5761a0507f49cfc3f7	3730166824	1	[ThZu.Cc]fc2ppv_1177886
0e49f1097948498793383012909db85936b16f20	699359428	1	Noemie.Bilas.Time.Bound.BDSM.mp4
0e544decec1899dc42f5b30ded5a2cff6679a23f	7963839	5	Photoshop CS4 Extended + Keygen (WORK + TRUSTED)
0e3b54174742e1141da96319bb714b584642d844	208295425	1	Gotham.S03E19.Heroes.Rise.All.Will.Be.Judged.720p.WEBRip.2CH.x265.HEVC-PSA.mkv
0ee0cc867aec01362ecce5c64f7b838d09f1735d	6787861	1	จับมัดแล้วเย.mp4
0ee567b02ec41cd00b9c216507ddd9b3ec282961	256843657	1	TVBOXNOW 東張西望 2020-11-26.mp4
0eb0e301a99a9ff1646da4b0b19750663b10e962	2592405048	1	Anal-Angels.16.08.03.Emma.Brown.XXX.2160p.MP4-KTR[PRiME]
0e0063f1c95b692b3092283c20c3cd552312a37d	7963458	5	BurnInTest Professional - v9 1 (x64) + Patch
0e81e197287577f580a3908b7807430920f01589	260107801	4	Jentlemanbear
0e9c68627f5c275c6ebdd08ade6390932f26b0a5	198270434	1	(同人CG集) [molefoneus (古蛾千春)] オスになるとき 第一章 ヒルドラ.zip
0ec6a79a3dd7852fcb5ed51808a2bd608e32e4e3	2791177350	1	streetblowjobs.16.12.11.genevieve.sinn.taste.of.sinn.mp4
0f341e95c92bdfeede8cd38b47abf3a178567700	3835721140	26	tenx19072
0f3a8efc21bbec1ffd8f750853b3ef9767f23a0f	7789093	5	NBA 2K20 - PLAZA
0f8b71b927510bb880ea5c87af8789fe97c3e626	116368545	111	Explicite-Art.com_12.03.26.Nataly.Gold.Grace.XXX.iMAGESET-P4L[rbg]
0f1963088f2e1b454635f56e4a5dc7b5d9228246	151643625	5	酒店搞超正黑丝细腿女 苗条美腿黑丝疯狂进出被搞的快哭了出来 强烈推荐！！
0f4c3e4c9faefbb1328de61a9a486bfb71a90067	176068957	4	Hitler.segreto.ep.7
0f488b19cf23dd982229f94b2c7a4b88ab5c90a3	1155007560	7	HTT03(AVI)
0f90dcfdcd5c861728d26a10fbd188fd617fc4af	3727779509	1	Blacked.20.04.04.Natalie.Porkman.XXX.1080p.MP4-KTR[XoX]
0f7718e30c59ab7749ad702d247a65de743662c1	1726692935	27	C0930-ki180731-HD
0f14132fdaea8768e1c750605cacc869988447df	1439093522	1	[Golumpa] Island - 07 [FuniDub 1080p x264 AAC] [4F0316CE].mkv
100d12ce2db1f42195ed8b43e33492f694172c10	1716004085	1	SL-021.mp4
10691052d2fbcf64273caa4243c4ddd5fe4bc650	500656090	7	olo@SIS001@DorcelClub - Alessandra Jane - 性感私人銀行家 (啄木鳥,雙飛,絲襪)
100293e4288447d7bb6d1d88b42da246db055376	3258018124	4	SeeHimFuck.20.10.09.Blake.Blossom.And.Jack.Rippher.XXX.1080p.MP4-FETiSH[rarbg]
100292d8b41dab057aaa20d42b43a7e1b604fb89	734812743	3	Peter Steiner in Pornostadl
10862c81a911dce8f3e03aea18da3faafc6ff48b	1815701191	1	Star.Trek.Discovery.s03e06.WEBDL.720p.NewStudio.TV.mkv
109fed44fd9347a1020175bbff1103d9e19246c8	45579393009	200	Throated Value Pack
10441d6eee55b4cdbb245c3a0ac6f3b0e89b5dcf	9027976282	3	His.Dark.Materials.S02.WEB-DLRip.1080p
1036510f2aeb12de1f69db75431760d14b3e10f5	1075104820	1	Mesubuta-140806_826_01-HD.wmv
11d33356e7c469be4f1f3e39761fe4867bd79c04	249224865	1	Музыка на Улице Сезам
11cd5894d67511a7235f9a2a05016d49ae1d7e0c	7787802	5	There Is No Game Wrong Dimension
1171854a2ce471a9c47cbd80b74e14ab8745f71a	232044369	4	[ www.TorrentDay.com ] - The.Numbers.Game.S02E11.Could.You.Survive.a.Zombie.Apocalypse.HDTV.XviD-AFG
111caef856dae5c92e88d555b6e2f8e0d428d626	1029098826	3	Ultimate.Fuck.Toy.Kennedy.Leigh.DiSC1.XXX.DVDRip.x264-CHiKANi[rarbg]
112d6ccffa50d04c81406d2bed62776425899e68	1933655672	2	Snowfall.S01E09.Story.of.a.Scar.720p.AMZN.WEBRip.DDP5.1.x264-NTb[rarbg]
11779c2cda540f69d2f015be74c9f53e4853a08a	2323166503	1	Un Astronauta Alla Tavola Rotonda 1979 720p.mkv
11af1878dafa9883d492ea3023f1b4a8bc9c3e93	374609157	6	[ www.TorrentDay.com ] - Kitchen.Nightmares.US.S05E02.WS.PDTV.XviD-TLA
11e660bcbf6e9f2b2887173e203c458c5877129d	7963270	5	Abelssoft YouTube Song Downloader Plus v2020 Patched
113d458ac046a7be054910e992b1ca551e1081d9	2775290964	1	Las hijas de Abril m720p www.DESCARGASMIX.com.mkv
1221b70119895c919b99c1e70d4c4c3a020b4e09	17174697	2	FxSound 2 v1.0.5.0 + Fix
12570651aa20771fdd0a4e0e2874e6b268cec424	258045194	4	- [ Hey visit www.SceneTime.com ]Russell.Howards.Good.News.S09E03.HDTV.XviD-AFG
128c597f7791191dafd9c0c0e93e43bc166cb659	23534680	1	Stolen Homemade Video 12.wmv
12a6c76f68f735b58eb21317a5566e60f27abed0	1135066275	6	Dead Cells
12bb5c1cf38a6959ed37a9d46a0394e4732059e3	70348678	2	AllOver30.20.11.25.Red.Mature.Pleasure.XXX.720p.WEB.x264-GalaXXXy[XvX]
128ee3056a86fa8b5fe55862304b7c51abbaa0f4	173483084	1	W.G.Stephanie.mp4
1202da8d531194b8d761b4c7892bca075323f5fe	7958292	5	PassFab iPhone Unlocker v2.1.6.2 + Crack
122f765005ed856485dfcb4ee644033e41d7aafe	4402745344	30	Critters (1986 DVD5)
139b8700cc0273f8bf8a8369e1224bd9d5616230	622326732	1	MilkingTable - Sadie Holmes (Sadie Holmes And Eric Masterson) NEW July 19, 2014**.mp4
1392d1638df6a5ef94aa9681f269e98a89c05236	2404214895	2	FC2-PPV-1583313
1300c13a1db7df2899e96b4fd3033fc638c1eb3b	412316501	9	第一會所新片@SIS001@(Real-diva)(11057)白昼堂々カラオケルームで美女がハメ撮り！
13585c584fff034913c17d39bd76eb6dbcb494cc	757858655	13	NikeのＢ@第一会所@ExploitedCollegeGirls - Jane Rodgers
1384a4f6b90b186cd9d1557ad275f858555dfdfc	7962025	5	MOBILedit Forensic Express Pro - v702 Final+Keygen
140fbad7ad5ca2d239d808b7620bf0c517174510	252055765	54	JOMMELLI - IL VOLOGESO
14b7406e4f4e4593468403cf4b3f9d6430f31616	128833950	417	TeenFidelity Jynx Maze - Teen In Distress with Kelly Madison 111110
14bc7162a3625ed660c0f9ab79e7a5c171b22b46	250185565	1	The.Flight.Attendant.S01E02.Rabbits.720p.10bit.WEBRip.2CH.x265.HEVC-PSA.mkv
14a2bbd379182fab4b040a33b23893a4f8efc168	7958263	5	Autodesk Inventor OEM 2021 (x64) Final + Keygen
1439d51458621103976038ed39dffc78a3c2738c	1120363624	9	第一會所新片@SIS001@(BIGMORKAL)(BDSR-171)人妻リアル不倫_流出ラブホ盗撮_6
140092300e7fa2a9f7dcb2171ffde072dfaae990	182475378	4	Native Instruments Maschine Expansion Black Arc v1.0.0.WIN.OSX [R2R]-iPirateU
1490c2c19291a4f4f94de19b6ec0ebd0cc7b8b98	764537567	101	Billboard Hot 100 Singles Chart (28-Nov-2020) Mp3 320kbps Songs [PMEDIA] ⭐️
146e83bc25628a29b748e44f5e16f886258945a8	7960723	5	Garmin G1000 Simulator
1495814674bd837d3e686cbdf657525e0f3080a8	197692243	1	Donne e uomini bisex trasgressione pura tutto può succedere.mp4
14552a0df684d381e918db7c33ae907815cb39d0	843193253	3	AllOver30.18.10.09.Sakyra.Mature.Pleasure.XXX.1080p.MP4-KTR[rarbg]
146da0dde994359dc566fe003aa76872e3909de1	1942481172	10	Black_Lagoon_-_Roberta's_Blood_Trail_OVA_[Azazel]_[HWP]_[rutracker.org]_[wirruss]
14f2cebaed2b3b743da5e07697871856f1c31ce4	7958114	5	IDM UltraEdit - 27 00 0 68 x86 x64 incl Patch
14aec72038395fc9e115237e497219b9aac12ff1	17174742	2	Raft Update 12
14c38e72ff39afe017f44f2e15b098b2b8c9b3f4	1750975	2	What Fears Become - An Anthology from The Horror Zine - By Various Authors
142101ca6a3310b13bf560c5a6600c1fd48fe2f9	1377383413	30	06.LegalPorno - Kristy Black, Julia Red - Double Addicted Balls Deep Anal DAP ATOGM GIO656
158843ff2acb9d4b295955f6834085e9543b8849	534681600	1	Umirajuscsij Lebegy [The Dying Swan] (Bauer, 1917).avi
15e19de875a6466b4e6114b517e594554c9a3087	3063981989	14	Tooken 2015 720p BRRip HQ AC3 DD5.1-rarbg eng nl subs 2LT
15d5176a6aea09b974d4e900ed213f86bb8ff88a	1564700672	1	Tre.Eksa.new.2017.P.WEB-DLRip.avi
158a3fd78981c2abade951a8ae71c8087b4c7d8f	770735875	95	Handel - Berenice (Rudolph Palmer) (1995)
15c7474025310d165e6ff47a7c0582242bcb6a99	7963589	5	Archicad 18_3006_x64
15d7ef0176c9bc4b38d51ec4775e9682f8a0a599	7790196	5	PayDay 2 - PLAZA
1576b401d4810a68d36000a6fd56060d3f05f5a5	2709956116	17	Woodman Casting X - Leyla Bentho
1668bb29072b1a67210315e931be636453a8fe04	195381624	3	小可爱平台童颜巨乳草莓熊双马尾白丝萝莉狗链肛塞调教啪啪
1664d0624aa5d3ef488c25a3f53eb138b4a87f07	1483735040	1	나 혼자 산다.E30.131025.HDTV.H264.720p-HANrel.avi
16435240339d8aa0e09737ff318ec4e8e463db16	2701674963	1	Рождественские хроники 2.WEB-DLRip 720p.mkv
164a9b26bdf5101b2f3bed01d98faf677d98a32c	22228988074	1762	Метро 2033
16db97f36f26087ea5c1331571e4a3f88e99b13d	2149363683	1	Ria Sunn - Ria Sunn Double Anal Gangbang SZ1174.1080 [Mr.Fun].mkv
168196e4fffba1f786dbe221f2fbcf8cc6febc3f	17174715	2	Farming Simulator 19-CODEX
164e4d757eb1246c71e1e5c13cd5b618faf0e748	95874693	17	Chris Rea - The Blue Jukebox (2004)
1625a24b3f3fddadedede9f6f721157571c7b64d	198094308	3	American Juggalo
1666226545a953f90d9344e1473ea18175143594	378593284	1	SCHOOLGIRL CREAMPIES DOT COM mia_bangg-SILVERDUST.mpg
16cf4d481ea32240e23a3565f689dfabc62f33b1	389015867	1	bbe14761480p.mp4
16f59d63a140a449d2e37b7d5a37e9437faa9bb5	1128249279	2	Anilos.20.11.27.Stefania.Good.Time.Girl.XXX.1080p.MP4-WRB[XvX]
1664dab276b998473671e4f65fcb2f5ac4567cc5	677034560	1	Bigg Boss 25 Nov 2020 HDTV 720p.mkv
1607262fecb1d1751b8e94eb44055d36dcf37fd1	6801616139	1	The.Mortuary.Collection.2019.x264.WEB-DL-1080p.mkv
16f1188e380b4c6623e0ef21769cb8b6a1d7d5d1	1652982	1	E-book Lord of the Rings books - Complete (BorromeoC).rar
1656e76e546be96f930d2b0653132b45ae5112d4	613301390	1	(abook-club)_Martova_L_-_Vishnya_vo_ldu_(Mishel)_2020.rar
1660d83d31848ffae6f22e5e0e4d5d1696f9f2f1	7788897	5	Kohan Warchest
16148288f5eb773e91587de2470e8726c63804f4	1686665023	12	Quantum of Solace 2008 (1080p x265 10bit Joy)
171cbc069db2ff185b65d035ddf4e84a33ccde5a	7790076	5	R B I Baseball 20 - PLAZA
17f3cee59521a4c57b27172e9496c346eb194860	590097666	2	The.Doctor.Has.Huge.Boobs.XXX.DVDRip.x264-SWE6RUS
17e7d61bb4dd428ed3590d70cf863fae7d60c477	21960509	1	(C86) [Ringoya (Alp)] Rin-chan Analism (Love Live!) [English] [Doujins.com].zip
176b44ee182f7bd9d78fd130283c6938a902f6a2	1851441562	1	[일노] 임신하고 싶다며 콘돔없이 안에다 싸달라고 징징대는 정신나간뇬~ 얼굴은 구엽넹
17edad386107d65883fdf47a48eaa93631c6eba6	504099739	1	Whiskey.Zombies.The.Great.Southern.Zombie.Escape
172758f18f437d6f9340225b93f60c75371f3fbb	149186482	16	lil_eddie_already_yours_[tfile.ru]
17e973f41dcbffad17519e30c5eeb5d7c39a3cc1	177894294	17	2001 - Никита Джигурда - Актёр и песня
17648386c3329d5cd7dd7361d71983383e3e81cf	71175813	1	Artbook_ Resident Evil (low-res).zip
175970a56233836a65ca6c02640ee6dfb1fb7dea	1651053827	1	法律与秩序：特殊受害者.Law.and.Order.Special.Victims.Unit.S21E20.WEBrip.1280X720.x264.中英字幕-蓝血字幕组.mp4
18c80426a060abf72a7dced3bf3491e7e7cd7349	123829842	1	Kingdom_v35.rar
183fbdb812adf05e600cda1cf2dfcfa98e314f87	79170434	1	PUBA.18.04.25.Jenevieve.Hexxx.And.Ariella.Ferrera.Vaping.And.Sucking.Dick..480p.MP4-TRASHBIN
188e5654f7b8741ed4981acb2905c98172c1b887	82517924	12	Hill Country Revue - Hill Country Revue III 2018
18738dbe70b6875c41a7ec66efd04d8c6703e4af	3249528888	1	Ip Man 2 AC3 5.1 ITA.CHI 1080p H265 sub itaNU.eng (2010) Sp33dy94-MIRCrew.mkv
189235fd5b1b8cae09d3cbf1013b049e7288cdaf	7958037	5	Adobe Illustrator - 2020 v24 1 3 428 (x86x64) Patched
18de8a1383204d7b646c4c71231793699a3ce3cb	435322913	23	Classical Film Themes Disc 1
1817bd9a70ded1c1e0c3d485a8e1d1f5724b37d0	1258639733	29	HeavyOnHotties.E117.Marie.Mccray.Giggly.Ginger.Ho.XXX.1080p.MP4-KTR
18755ccc0ea2995a970d111a2134f78589070ad4	37616278	37	33 Bedroom Cool Wallpapers 1920 X 1200
19fa1400db86dcad7b4e7ae9203dd6c36724ae3c	33363473	1	Uhligs Corrosion Handbook 3rd Edition (Wiley, 2011).pdf
1968c95796308c67e31e2dbba1a9001ff517575f	633609603	3	PornMegaLoad.20.06.18.Emma.Lilly.At.Home.With.Emma.XXX.1080p.MP4-KTR[XvX]
1926b26ede95dc3e4e20e8b7d4cad57013062a9d	23028425057	71	国产剧：北京青年(全36集)DragonTV.Beijing Youth.Complete.720p.HDTV.x264.AAC-iSCG
193e71e9c357050f7bbd4450b0852a6647c06db9	5855650270	3	Evilspeak.1981.EXTENDED.720p.BluRay.x264-CREEPSHOW[rarbg]
19424036ce19ac9e8fa8af1b979ec0a078b2e6bd	1463696159	1	[DDF Busty] Katerina Hartlova - Sexy Conversations - From Dirty Fantasies To Hardcore Titty Fuck [1080p]
197f9397839c1a7338d5c4736b25669df1b219c0	1758152398	30	43.iene896
195b511d5718730ebdb412789006474184d5f8ca	17174698	2	Mafia Definitive Edition [Steam-Rip]
19ba990224936e1264e61716636eaab26fd51bcb	366221609	1	Deep Lush Emily Willis Make Me Yours.mp4
1a5c872e5f2c18d272d97e4543a35ef320165c02	372533573	96	Град обреченный. Книга 1 [2012] [Лебедева]
1a371fc6efb7305566c183d9ac1c2a420e5a275b	169167224	3	颜值不错皮肤白皙红唇妹子自慰全裸张开双腿跳蛋塞入震动道具JJ抽插呻吟
1a0aaa77083ee998378aa47ac5bdaa5acfb37aa4	43100998	4	Adventure.Time.S05E45.480p.HDTV.x264-mSD.[P2PDL]
1a47f3f30598649418aea13d588a96cff269c5a5	5280543410	5	Dead.Snow.2.Red.vs.Dead.720p.BluRay.x264.DTS-NoHaTE
1ab0aa213094df255f16b6ce003223323e637db4	436590674	1	White Teen Chick Deep Anal Drilling By Black Cock.avi
1a3b05e2f15f3124031188280e8c9d90b38eafef	639460733	7	www.Torrenting.com - First.In.Human.S01E03.720p.HEVC.x265-MeGusta
1abbea5b4986591c2aaebd6001df0f38790a9ef7	171043386	1	(同人CG集) [ぬるポン] 催眠胎辱～学校のアイドルは僕のモノ～.zip
1b4eb2033fce8d0ec9a5a1db5bbeb6fb6add2127	1195462815	1	Alexis.Fawx.Diamond.Kitty.Jada.Fire.FuckTeam.Beach.Time.Fuckteamfive.01.20.2012.HD.720p.mp4
1b85df9ea69b09c88333ff876b43bc60e0380732	4248079773	1	热气球飞行家 The.Aeronauts.2019.1080p.AMZN.WEBRip.DDP5.1.x264-中英双字幕.ENG.CHS
1b2bb67d9051e472f8bd61ad7e29b6e407ed514c	4178346800	1	Bang.ASStronomicalBooty.01.11.19.1080p
1b6ca28e1ccf55be14d815e962f0c11952751e73	885103574	7	Shooter.S03E10.Orientation.Day.720p.AMZN.WEB-DL.DD+5.1.H.264-SiGMA[TGx]
1b31fff00e4e68ad80e71e83e00eaf788ee2c3bd	80185482	10	Bullet.Girls.Phantasia.Update.v755.incl.DLC-CODEX
1bf0a2b5e815576ce6ce8e73ed478ca7b4f014d5	261635323	1	www.TamilBlasters.ws - Theeviram (2020) Tamil HDRip - 250MB - x264 - MP3.mkv
1b05743e40764539911947cf71a4de8f55f700f2	408086133	10	Kertész - Schumann & Brahms
1ccf1114a63510adc177cdc73c1539d9d533800d	630765531	8	Katatonia - Dead Air (2020) 2xCD
1c8c216024b4f6a51fe6e6faa226de72885a9037	4138396591	47	HODV21274mp4
1c35b516751ccd09523361bd0bc10c55d880ce5c	998141177	3	Immortal Sergeant (War Drama 1943) Henry Fonda 720p
1c4e9f73e6dc6fd020423e24c8cad39a2798ad5f	930551441	3	13[Thirteen].2010.SWESUB.AC3.DVDRip.XviD-CrilleKex
1c75f39908f6cd3041586825b784adf4ce7c0567	1835623680	2	Punkt.Naznachenija.4.2009.RUS.BDRip.XviD.AC3.-HQCLUB
1c323a2f08d50d6e7e9ec8ae1e718bf5e59bf768	183508576	23	Sandee Peng
1cbc25ba42d2fe6e1f0ff7387a574c2860dd8f6d	34101098	1	Исаак Лапицкий - В тени небоскребов
1ca1398f057ef2e6eb9e8f068d95dc3fc60c0b9a	126780082	1	George.Lopez.S03E11.480p.x264-mSD[eztv].mkv
1c210ce2c8b41df81602554e25c4a0162b1299b4	11262563000	6	HHAP005
1cafbdeace289b28e48a85f0700a20bab2cae6b8	3252537192	2	JUSD-409
1c2d4d73f280781349496ce76f31bbba757737dc	1469718881	5	라이온 킹.The Lion King.1994.1080p.한글자막
1cbb51cd9e3ff61b6cc52e84405058842f7221fe	946851338	1	C247.7z
1da22d8efbf3d796503c07e34a67125a504b0a15	516699272	1	Fat Dick In Blonde Whore (720).mp4
1db8c85165484ddcae76abfb56d904be291aad23	471478015	1	Blackish.S07E04.REPACK.720p.WEB.h264-KOGi[eztv.re].mkv
1d14f9f1543e0bb0f6b9b35ce380c7cd3060b244	2373598099	2	DP Double Dick Overload Oil Slick (Ava Addams) (2013) XXX HD 1080p
1d37f6123fa014d1bc07dd74f331f5c0f187de7e	834944097	26	mesubuta-120206_475_01-HD
1d84f34aab04b54581be8524a3e20fde15e91994	1769771508	4	The.Bride.Wore.Boots.1946.1080p.BluRay.H264.AAC-RARBG
1dea40b9c7b53dc2a6d4b9a16acd45c3f9050ddb	1417543687	4	Back.In.The.Day.2014.WEBRip.XviD.AC3-RARBG
1d0f04c03272890866f7beab766b6daa2f5931fd	2335384	1	0814477887_Inspiration.epub
1ea3a09f47ed4fda33e5fca11a87fe2de3095245	9375079	1	Rest of My Life (feat. Usher & David Guetta) - Single
1e2fddf2da84eec9d4581c1657e62124dd541451	3700654	1	Wiara - Jennifer Haigh.7z
1e3a84d832810ada3e99d8d18e2d78c83f6eec85	4959888577	4	fsdss-127
1e12613fd823e372ab6d08467770a0b1202e708e	1269622864	136	FAX350MP4
1e6735dd4d4d99ed16ece15a952f83f5cacb4497	261258167	7	[ www.torrenting.com ] - Wallander.S04E03.The.Troubled.Man.480p.x264-mSD
1e7bf8d24b5bb92452c7ef774925ac26f9d177b5	7788424	5	Chocolatier.(PlayFirst.Games)-WWW
1e1585799168dd7a58ed488acd4a6953b09f60f8	7799781376	35	Heat
1f3227453fc2d85619c708ca52423649e197c06e	740496888	1	Hot.Blonde.CamelToe.Pussy.Melody.Marks.Rides.Dick.And.Sucks.Out.The.Cum.20.11.2020.720p.VHQ.CENTURION.teens.bigtits.mp4
1fa757038588d364be20f81e7eda05b22c8da36e	1088270373	44	Cafe Del Mar Volume 14
1fe5aef6b2a6454359f00ae7c1a4b49fc531fa9e	1245663232	2	Killer Crocodile
1f478cf171cbfdd4475df7fd5b83a9cadcf2dbde	734685864	6	[FileTracker.pl] Liga Sprawiedliwości Mrok - Justice League Dark 2017 [WEB-DL.XviD-KiT] [Lektor PL]
1ff12469b63fc5eb4a2acdb3b804879e1e0dceed	1392854294	113	SBCI061C
1fb4c4423356716b81789f20abdc24358076d6f2	762479638	4	OrgasmWorldChampionship.16.03.16.Sade.Mare.And.Britney.Y.Usa.Vs.Japan.XXX.1080p.MP4-KTR[PRiME]
20cb5388dd358b59e3519248792b531648a0ad25	344258389	1	mlibashleyfiresvl102115_480p_1000.mp4
2088a3e2b715603c702509dab76b6f7ffd37b743	7962888	5	StartIsBack++ v2.9.3 Final
20122267d254b7583aab1b9f3086ffc1906a376b	6931349504	1	PES 2013.iso
202bf2b88cb28ed6f718ce5fa918fb0ffb48d38c	1574869211	46	Rush Sector 2 [5CD BoxSet] FLAC CD
2014127249354823c8620de7355e49754373d8a1	1191601	1	0d8e66c6-9ba5-4cfc-8be3-793084f40048
20ff017eba851fe789358d00d8512a4933f781f1	126837494	1	I Suck His Dick and then He Fucks My Pussy (CUM IN MOUTH) - JulieMayBae.mp4
21d52bb01ae60ed481be3f7469ef78073754b83b	209897636	108	Vika Z & Ksucha A Sins
21a8cf0a0c3f426fc93b7e067654beaa3f682582	7963593	5	100.000 Windows Drivers (For VISTA+XP+ME+98+95+2000+2003) (08-20
21fd15902f1ec7623819137a431d61d63883db89	88961312	18	frank pahl & klimperei. music for desserts 
21ea875ecfa5c5f84dbfb6b2cda6b596972ce0d4	15144653	1	Tuxera NTFS 2016.13.6 + Key MacOS X
22154329c3e7f5d5314285393b8ba7763b5af903	17633406	1	[Mine Noujou (Minemura)] Kizuna LV0 no raama ou to himitsuno omajinai (FateGrand Order) [Chinese] [逃亡者x新桥月白日语社汉化] [Digital].zip
22da0cda0797b38159ad1c39dff61c4d65a69c04	585972684	1	Armbian_20.11_Nanopct3_bullseye_legacy_4.14.180.img.xz
225c4ea3b1dbd9fbc9e40276ba1ef8f455c6cc25	95677088	1	CZECH HOMEMADE ORGY 2 PART 2
22f50138b75ad451aefc3fb2b641ebde2116602a	1384179400	27	gd1974-05-21.sony.ecm18n.lee.smith.miller.clugston.flac1648
22208fbcc858294e5479e184b01755653313912d	323853061	6	www.SceneTime.com - Im A Celebrity Get Me Out Of Here S20E07 720p HEVC x265-M
22a1509657a175e7d8fe546ff6cac9e6fbd2f42d	16571575	2	Роберт ван Гулик - Убийство в лабиринте (Поднебесный детектив) - 2019
2223bc3baf846a889fc60e724f05b8d0cf81232e	709821426	1	mat-slez.mp4
222ac25160a5a22cd8a1f09854946be0f85c3541	1466918912	1	Heavenly.to.Be.With.You.2019.P.WEB-DLRip.14OOMB.avi
22207e7e621598a011a1db28e7c55f015909fa4a	41082906	1	Огинский Михаил - Полонез (обработка для женского (или детского) хора и для смешанного хора без сопровождения Вл. Соколова) (сл. Евг. Долматовского) - 1956.pdf
22a8a3549f75b88c48dfc2fe06fa8631a26bf284	110697131	14	Son Of Dave - Explosive Hits (2016)
221bce439a241dc7e17183c82f660e832fed5f87	774549907	7	olo@SIS001@DorcelClub - Elena Koshka - 愛撫性感空姐 (啄木鳥,制服,絲襪)
22f8b39ef1f79aeaa254a83ea4f18def5b05f296	1170170682	1	JAVFILE.ORG_TSDV-41537.mp4
2250b99e453fba14fd409b9b01d78491110da0a1	632555160	2	Passion-HD - Dillion Harper (Wet Massage) NEW 09 January 2016
221a60489da4f4381dbe14c61bfc67914ab9e8b0	318819769	2	AmateurCFNM.20.11.10.Susy.Blue.Im.A.Good.Girl.XXX.1080p.HEVC.x265.PRT
226bdee57ff4256bb51ecb68be430452a147d8bd	683239046	11	The Twilight Saga Eclipse (2010) [Dual Adio - Hindi + English] BDrip 720p x264 Brave_Tiger..[{Team_Tiger}]
22593f844a3bd647e0758f1745f9f15701d7c7bf	23855981	6	LINKIN PARK - A LIGHT THAT NEVER COMES (2013)
2201fa31a4de854898e2ddddf03e2db1248f8bc4	17174698	2	Adobe After Effects 2020 v17.1.4.37 (x64) (Pre-Activated)
227d096cb86163bee4224f4b1b58358e5934ccd4	731275953	3	Taken.2.2012.SWESUB.DVDRip.XviD.MP3-little_devil
2231d654cedc64c6b7e7883ecbe2e6bbfb95cdfe	234178936	3	超白嫩女主角简陋出租屋激情操逼720P高清原版
23a182dec7705e4f016e28a99f5569b82e230007	981565172	25	[ www.Speed.Cd ] - Law.and.Order.SVU.S13E06.720p.HDTV.X264-DIMENSION
23ae3a8dea4fe8f8356d2aeef8db321c35dad62b	1476497322	1	Zombies! Zombies! Zombies!2008.L1.DVDRip.1400MB.(R).avi
23c1eea84f7b262cdbd1bd5ef75ee2e0bd049f69	776884736	1	Dick+Dunn.avi
237c7056ef7680c1125f5293081daf1c04949471	113910415	13	Smokey Wilson 88th Street Blues(blues)(mp3@320)[rogercc][h33t]
23c9c142128969d2d913e842ba0756c44361f980	761154807	12	Heydouga 4030-PPV2220
235b0e1f11a701da13f798ea848794c026acc5ae	1667731197	49	OYC008AVI
24b3ade679b9aae27485509193f2400e56fc0d25	395656137	14	Jaded Heart - 2020 - Stand Your Ground [FLAC]
2422b260e545916efe7b805efac20fe0cf5faf35	30585006095	100	[MormonGirlz.com]
24b62bee6ca4a625fa4bc739732781cea6c2096f	504708202	3	Erito.20.11.27.Suck.And.Fuck.Rapid-Fire.Orgasms.JAPANESE.XXX.SD.MP4-KLEENEX
24b06c38169b1d007fcbed59de2a7a41295c878f	7964423	5	RhinoGold v4.0 with Key [TorDigger]
24c7b97fb096be69c3f3e987cd1719b476d8c29b	242483262	10	TVBOXNOW 理財有道
2485fe056983561126946ede45c9b3523b3a52b0	5469473	1	Synowie Fortuny - Jeffrey Archer.7z
24c383ccda1bd0ef6ded45822ba05a2493c7cdb6	1470513152	1	Teanna Kai's Pleasure Pagoda 2.avi
244dad835e88ca8309d6e61cf6a13ceea2d3aab9	7789462	5	Project Zomboid v41.42
24020ac8cd1fe7d9bad4ab4ae04f131255abcebe	265334751	6	FemJoy.15.08.23.Josephine.Love.Is.In.The.Air.XXX.1080p.MP4-KTR
241d62ef3e4b144bec40cab689c3ae290fbea1cd	361465337	1	MomsTeachSex.20.11.26.Crystal.Rush.Lets.Talk.About.Sex..480p.MP4-XXX
245ec52488d45c2d2aaef42fa9a9522852ed9afb	1580149406	11	2020111360
252257fd3b7f843539412ec3e81d3e9506f8180f	1321079339	100	Grand Disco Mixer
25ebd44221d9c8b686ecf7b7d2eb930a008bda12	7962546	5	Microsoft.Project.Professional.2013.x64-iNDiSO
255cc640f789481ea1ea9530fb6ee7031f01e715	407151223	1	失踪[珠大BT][bt.zhdxs.com].Missing.2009.KOR.DVD5.X264.AAC.HALFCD-NORM.mkv
25337f6432bf2a1a41fe4353cb952ca0253c6329	3490484224	12	3
255c9554e589b30045e8ad8b144ff92b5d539a53	653623652	1	Impractical.Jokers.S06E20.720p.HDTV.x264-W4F[eztv].mkv
251003d7b92e681c75f2f3958b55cd4fe8668b5d	950025474	42	1pondo-121213_001-HD
25cdc4891f64aed4f657a48b50296a4737e01f6a	74032880	1	Альфонс Доде - Прекрасная нивернезка (Р.Плятт, Ц.Мансурова, М.Глузский, Г.Островская, Л.Портнова 1957).mp3
25337858c3b4c97dc9e253e96007ac4eafc72790	151003039	1	Bishi Bashi Special PSX to PSP.rar
2576c4228d2489c6433ff6d3eb1757acae7bbf98	429642304	1	ElliOnTop.mp4
25475d02dfe7e5c3169df0fed44d55c99e0c8bb1	59272144	4	Хрюн Моржов и Степан Капуста
25b29ce8fd886fbf05c1a159834a5dc44362d4c3	79959636	1	LatexAngel.Extreme.Latex.Kink.Pissing.In.Sling.XXX
2532d0d4c8071c9bf31cbef0d465e1c67cf264c7	160592073	11	Coverdale • Page - Take Me For A Little While (Single Maxi)
25df5d86c6cf9143c4162b8a73053a5a03c86de5	3746056549	26	DVDMS-590
25f29b3ba2e80d233e0134439eb24ba3b49faaf8	614731139	3	The.Killing.Field.2014 CroSubs.DVDRip.x264-PFa
264c3cb578862664bcb5195c74ddc029d81d5ac2	4439131732	10	[2011.12.14]地海战记[2006日本宫崎骏动画(BD)][中日双语]（帝国出品）
26b6bc6f6b1258aa44119f2a9653e97e5b913fc3	7961068	5	UnHackMe v11.80 Build 980 + Activator - [haxNode]
27568495b01cff24c9a0c01a970e65b4f66d9932	2618446719	4	Erito.20.11.27.Suck.And.Fuck.Rapid-Fire.Orgasms.JAPANESE.XXX.1080p.MP4-WRB[rarbg]
2783bfe876e40896678a67f6153b75a7b2e2f935	178028718	1	[HYSUB][Majo no Tabitabi][08][BIG5_MP4][1280X720].mp4
2711a1507c3992895a195feab5b65327f068ab55	1499858870	1	jukujo-club-4835.wmv
27fb739a1a220286b4ea711a4a698bd1f3e03d5b	204135032	29	Michael Wallace - Rebellion of Stars
271675b1031a8f1c73148cd33bc30c9acf9e4f5c	1565099567	70	IFDVE032C
2727f316fcb8c08905c4c934b94c5bfef8b1dc5c	7445585966	1	Sluchajnyj.roman.2010.x264.BDRip(1080p)-HDLine.mkv
27591a11252b87831895e3c053830cea4725305d	1516460571	7	olo@SIS001@RBD-787
27d1fdef93a258d8d266ad73f7a13273cc42fd69	9906925568	27	On Film
27db5e206948c030b06bf7cd5dc3dfc3014fa47c	1469881341	17	Black.Beauty.2020.WEBRip.XviD.MP3-XVID
27b399a6fd147e9010a353613575c2c30e0970b6	768725575	2	[ThZu.Cc]AVOVE11-24两场合集
278c994862cc8da531ff3187a2866f51959c39d0	2238326380	1	黑水仙.Black.Narcissus.S01E01.1080p.WEB.h264.无水印中英双字.7meiju.mp4
27f2ce34da3842cf8a3361ad5af942dd478a2df8	1022488282	4	SSKJ-008
28d3b229fe851b505f6a184c7a262f0ea044ef03	4692818604	1	wwe.royal.rumble.2011.ppv.720p.hdtv.x264-kyr.mkv
286d20583db5f2113acced7430d13d6270600d15	5025900820	1	A Funny Thing Happened on the Way to the Forum_HD.ts
2820ff8b754483a8dc40bf7a63f7bdf8754d253d	17174725	2	InPixio Photo Cutter v10.4.7557.31477 Pre-Cracked
28e26d0268e39631e67c324ec9184473d1a30a5a	3380994613	5	【ses23.com】n0991
283e1b303d78b3286d7fdcf377a3780bcf80565c	6734819306	49	BGN-031-DVD9
2805f35843f62aa5d0e0517ef2e59f5365c1acdd	442655100	1	태국 유명 모i델겸 영화배우 Kesarin Chaichalermpol.wmv
280966d1364a4d3acf66ef9262fc1bcf8ac7fbdf	946904858	1	Genius.S01E04.720p.HDTV.Subtitulado.Esp.SC.avi
28f7047d04fc7ea1960020821604248c3e9fddea	282889206	10	Invisible Horizon - 2020 - Deafcon One (FLAC)
29a6e5bbe2e8d3f3d7b6cad698107768b75c521d	9833546413	61	1986 加油！吉塔斯
29e58523828f9d1939009fc188fcbf7f64f3d72c	1141912314	1	Euroboyxxx - Hot Twink Boys Swap Cocks.MP4
29773576986306a8ebe2ce196672f94b9bec5b35	472498749	111	edinburgh_lectures_1207_librivox
297c21204a53d9ab4792d0a8bdab3c06fa81113c	2127257169	1	FC1 por Priceghost.rar
2914943752f32b1533763bb5761991ef06e2fc53	274283080	26	VA - Nothing But... EDM Vol.9 (Nothing But [NBED009]) WEB - 2016
29430e55fc62910a0db4c480e9117525335aa16b	211979491	23	VA-Asian_Heart_Lounge_(Chillout_Your_Mind)-WEB-2019-NDE
290f121ab8a5bea69e65e809fab639d41da8b999	29483271	2	Корр_Веса
29ee0df907e613cd35bd65494b09b040f044cbb8	196968616	2	Wizorb.2012.PSP
2958be246431f2f57bc32b9b534de7c9f9a865c7	2897916047	611	Pluralsight - Computer Fundamentals series (CompTIA A+ 220-1001 and 220-1002)
29aecfa642691875f174e505024bdeab3fc635e3	17040855	1	Зиновьев Д. В. - Основы проектирования в КОМПАС-3D v17 (2019).pdf
2ac972e3bdb09acb984f3dd88a4da5b4af9f8500	446516846	1	MikesApartment.com - Ann Marie La Sante - Sweet petite
2a550f60015bfa9e0c18c3fdbaf612ef718023a7	479871365	1	[DLMux 720p - H264 - Ita Mp3] NCIS Los Angeles S06e15 - La cellula.by.IperB.mkv
2af8f5a60faf35b7af28395c23bb2fc2299b28e0	5120682594	25	ROYD022C
2a452fc196228917b03bcdc36c3f215f353607ff	391932008	1	Stargate.SG.1.S08E19.720p.HDTV.Subtitulado.Esp.SC.mp4
2b19537b7f810b27553dda1f0b200ca6ce974000	230212055	7	www.torrenting.com - American.Dad.S13E11.720p.HDTV.x264-AVS
2bea570ce5ce59bcb7e6d6087e8ded26bc0c2a00	9311797248	36	Monsters of Metal 1
2b0578aede958b86e94c570d25f16ab8d793b01f	301258385	1	Бамблби.mp4
2b075cd81567c6766df2ce08fe29554e60d4f46f	2264542978	5	[ www.Torrenting.com ] - Im.A.Celebrity.Get.Me.Out.Of.Here.UK.S13E16.720p.HDTV.x264-BARGE
2b752da207c44c77ac65ef90aefbfdd43916a5b0	1636531267	2	Kampf der Gladiatoren (1962)
2b4c2edcfb61803849e3b8d6847fc43b1d179acb	421256166	1	Fargo.S03E10.WEBRip.400p.rus.2.0.HDREZKA.STUDIO.avi
2b76bb27565778e62bf45aa72c4729db154bd5f8	725870369	6	[thz.la]h0930_ki170209
2c075900846d08ab8c28f9c7854f21b9dcc6c59a	231642204	3	installer_x86-x64_89006
2d6a18643c4715f557da6753ebb211b60fd4221f	1078638420	1	[BBT-RMX] Future War 198X-nen (Toei 848x464 h264 AAC) [442A759B].mkv
2d72938c3fbfc2e26ecc5e5f26cd2d23ee04633d	219337410	1	1186HaleyScottIwasTightYesterday3
2d5f456a3e3024c2f4795cf6fbfa284745e6f87a	2779406780	4	zolotaya_meduza_[tfile.ru]
2d976d5aee60d6db2672e31c5ed2f8a3994ac796	235314391	6	My Friends Hot Mom - Veronica Avluv
2d09fc388f66ceb6ac2058c70f3488fefb1ed1f4	7963158	5	Replay Media Catcher 7.0.2.6 + patch - Crackingpatching
2efa822fc881037e2113f99f37cc410f7fa0c10d	408449810	2	[NuruMassage] Abigail Mac Ryan Ryans - Treat The Wife (11.05.2016) 544p
2eb2d290347d139b1e4709e77b3e90479c6c6217	67830847	166	ATK Set 290528 - Molly ODell Gallery 105 Upskirts And Panties
2e674094a2025f7f781fbb88f66d11c0d5b2b862	697761559	187	Adobe XD CC v18.2.12 (x64) Multilanguage Pre-Activated
2e0094b184dd553a28233377510a034c9265bd73	1395704984	4	PornstarPlatinum.14.10.09.Misty.Dawn.Giving.A.Gamer.Fuck.XXX.1080p.MP4-FaiLED[rarbg]
2ee910499e8aa9401f86cc9946b61bcb9cdee288	732057600	1	Tuck Everlasting (2002).avi
2e5855c9e1a7a71afd688e8ec49b49166529398f	201163221	30	Андреева Марина – Его единственная [Tina Gold]
2ee3576ec5daffee6a5ea291822818b6d457619a	7960992	5	Video Copilot Action Essentials 2 - Tutorials & SFX ONLY
2ee83d0b042bc88d328656e7917814a907de71ac	21476805	2	Озерецкая Е.Л. - Олимпийские игры. - 1990
2ebecd14fd46e3ef41b9958454f8e4c6e80c98cc	963947674	12	www.Torrenting.org - EvilAngel 20 09 30 Emma Hix And Naomi Swann Fashionistas
2e24f898330a0101ced9528eab82a02cecc5dede	7787225	5	Diablo 1 + Diablo 2 [PC] [ENG] [FULL]
2fa84e06577336380de2f3774464e7f7ec674f1e	611195367	1	[8thStreetLatinas] Gina Valentina, Ariana Cruz (Super freaks) [432p] [.mp4]
2ff3459d541abfe578c71ebe33fb6b829a7d1e20	3769237177	1	The.Shannara.Chronicles.S02.WEBRip.1080p
2f97e28b8e31665414c89d1c9fdaa450618b8942	1375266785	2	Ad Astra (2019) 720p BluRay x264 Hindi DD5.1 English AAC 2.0] - Esub ~ Insane
2fb1b45b30c40a546cbccd89efabea7276cbe046	572283582	15	13
2f143ea9ff60e014b1089ced47b81fd05bf32e4d	313621923	22	Player Supreme - Master Lever Text Seduction
2ff0899ed9021b03f72977624d64ff930f089b71	365449355	2	The Mentalist S05E01 HDTV XviD-MGD[ettv]
2fa818d9a55268066a35399a42b759a2f4a97b7d	47375725	1	Berlitz Japanese.daa
2f6eb4fc59d8c126ce596b4a3b7993023da4827f	1746525600	16	ABBYY.FineReader
2f4d754c3dfcf4d63e6eb04304bbe765518e178d	17174743	2	Vaporum Lockdown Patch 3-GOG
2f8ebc92d93050a5305a6a677ced8b2066fddc8f	316573783	2	SexMex.20.09.21.Pamela.Rios.And.Teresa.Ferrer.The.Motherfuckers.Club.3.XXX.720p.WEB.x264-GalaXXXy[XvX]
3045925a6961f197c263da8e17922729d046df0b	7964103	5	Vienna Symphonic Library - Epic Horns [KONTAKT]
30b1632284327393060518882287cc0c6ebbef28	146258627	23	Best Of Electronica 2009
304e985a9d0913f2e273dd01bd0fa3b01cba942b	4688185578	17	The Hobbit The Desolation of Smaug (2013) NL Subs BR2DVD-NLU002
30533157bce4f656e5a948a8dbe98f30b73ceaaa	9085598917	1	ODNOKLASSNIKI.2013.1080p..mkv
312003cf683d61e3bc921e485bb64dc8efa2de05	1436891272	1	[Golumpa] I'm Standing on a Million Lives - 03 (100-man no Inochi no Ue ni Ore wa Tatteiru) [CR-Dub 1080p x264 AAC] [7A1C1266].mkv
315af5ec8a3c4d611bb929caac5797e762234a2d	530841662	10	TVBOXNOW 我和我的爸爸
31dfdc7854f354f5e8c901abb577443f6fb46b4a	75456481	20	OST-Madagascar_Escape_2_Africa-2008-pLAN9
3149ffb0461147b3e159e4cb4e6b8fa56e5bb054	1003405440	137	VENU332MP4
316795ea94e4dc7de87be72eaec520aa9ac49c84	381410054	1	Every.Witch.Way.S04E14.HDTV.DailyFliX.XviD.avi
313d97a1b7baa95e281b8964b594b67204a0928d	433601761	6	www.SceneTime.com - Virgin River S02E09 XviD-AFG
31a14cbf8b5753d4b094ec3bf200c10733cba3b9	498860277	13	im520@SIS001@RTP-021
3138e480b0d2852703b4d43593ed1bfd1ad83ebf	309005123	1012	[ADV] Shelter 0.8 [English][www.onlyhgames.com]
31cdfc1de395351d63b9bceb509ae43d48f388de	734644066	3	Mamma Bastarda 2
329ba23fadd5f84d3d9f4c914885ade916ed2548	280003853	2	Ace Atkins - Wicked City [M4B] (Dolbyuiop)
3202ac530e12941df23d5b75b5493f04edac2496	219053319	1	(18禁ゲーム)[130927][汁ダク系 乳組]巨乳な兄嫁は好きですか？ ～貞淑な妻が牝へと変わる刻～ (mdf+mds+rr) ※自炊.rar
32cfdf9bdc6993aa37925538fe2f05bb394ffeaa	2239758569	310	OM27166
3298207e3454946a89fee60cea86b1cccb96e2d2	15653999056	1	Beverly.Hills.Cop.1984.MULTi.2160p.UHD.Bluray.DTS-HDMA.5.1.HEVC-DDR.mkv
32c6b75c5ab90d5dae13cd80224a031e1446d2de	295586485	4	Twin.Turbos.S01E03.Off.Track.on.Course.WEB.x264-ROBOTS[rarbg]
32ef49c19017f3432e2fd912dbec466f85c121f5	559045134	2	ABP-748 Aine Maria Kissing Crazy
331b03cb6187352fe5ef11f5e52165db8a68cb0f	158919929	2	SexInTaxi.E07.Chloe.Lamour.CZECH.XXX.720p.HEVC.x265.PRT
33af5f729e17ab08c2e76e61f206daa44d661e3d	959660269	1	KV-069.zip
33f405cc8b87e5420de05d1fb291e36afdcfda42	102407923	14	Jimmy Buffett - Songs You Know By Heart (1985)
33b39fd8aff60a4647f14c209a7c56bf885d5e4f	294703494	7	【淫满魔女】金髪天国 840-純粋無垢18歳美少女初撮
33efaa178795b4936e209d9043ad956959d1b667	2198212525	1	Il Secondo tragico Fantozzi (1976) [Ukr,Ita] WEBDLRip-AVC [Hurtom].mkv
33a952584a1412709b3437ac123508e8215f1d9f	177555832	3	网红脸长发气质大美女家中和铁杆粉丝中年男激情啪啪,男的干累后又用情趣道具玩弄美逼,到处都是淫叫声!国语!
332e03052554ecb311b544237611e45ee80170ac	455805667	8	Schumann - Leipziger Streichquartett
33fe168dedc40dd98d1f09cc0c8b85fae6d133af	256504530	1	03.04.2014-720p.flv
338cd7971bc1804c8b4a071fb7ed6ea8b39f52bf	4760323889	7	www.SceneTime.com - Bones.S01E10.1080p.WEB.x264-NEXTGEN
331aaac1b1c9e3293de4e90b20df182cbc2645d7	442499171	1	Natalia Castro & Fernanda Lemos - 2 Trannies In A Wellness Centre (25.11.2016)_406p.mp4
33b2b571fceb34417942469bcce48a4eb5ec1be0	2111616248	11	0831-olo@SIS001@国产精品合集-3
34e7f1b60a6d0b71900bdb3ad5fe13658de5d400	338510429	12	HJD_1970-通过地中海服务中心邀请的超短裙黑丝大奶漂亮小妹加了1000元才同意啪啪大叫-好大-好舒服-操的我淫水直流-1207
348ca290b7ba4eb906a03ec59235e66e67e3a901	48316312	82	Virtual DJ Pro 7.4 Build 449 Final Full Version - SceneDL
3411b5d8d26fd51d88bacfb730fd97555e5ba46e	1490766766	61	VA - Toolroom Live 01 (2014) MP3
34298eb89eaa4dde6b65b15802c5b765cc243481	4843150818	3	Safe.1995.720p.BluRay.x264.DD1.0-HUD
345c3b9a46ae40d218cb1abb93e4d738ff7d578f	733834937	2	Android Insurrection 2012 TRUEFRENCH DvDRiP Xvid-TFTD
34d2884d5ef0227603b4cd040403172dae20bd9d	102248277	17	Macabre - Carnival of Killers (2020)
34c6978c162e48ac8533c35ae1bea5ab6200cfbe	7790190	5	Factory Town v0.164b
3424d2592096fc6353f4145f3d88e753e18120c5	126501177	14	Charles Aznavour - Aznavour 2000.www.lokotorrents.com
34bf38947d391222217d2596ccf233add56ccbce	48001766	38	Большая Лена
358eaa28b1dfabb104bc8f0fd297cba4cbe00d2a	18070579582	10	Undercover.S02.1080p.Octopus
35743f3e08ae46f75b518a80dc01fdafc526c853	138414005	5	Spizoo 16 06 21 Karen Fisher And Lily Cade Karen Stepmother Fun XXX SD MP4
3593936974b38457b434496c0cc35588c3af8a70	1161344781	2	91C仔之大鸟兄弟最新豪华精品大片首部原创作品-番号SF-A001：初试水温之狂操外约桑拿女，全程精彩中文字幕讲解，美女被操的表情丰富多彩
35d51310a48a3a5085f288898792e7a0ca1ae479	684843687	992	ATK Aunt Judys - Carmelita Lopez car120 - 1 - 992 pics in 9 sets
355dd410b76032e5838957c419cd7daf861c1a94	1130408830	1	[JamesDeenProductions] Emma Snow {Emma Snow Fucks James Deen In a Hotel Room - 08.15.2015} NEW 15 August 2015
3575994dd6e611afec6a80432ba56acacc7d5ef8	678748160	1	Doctor.Who.2005.S11E10.HDTV.Subtitulado.Esp.SC.avi
36407dc1c193fbac786303a1fecb317003ca2202	6001508745	1	The.Story.of.Plastic(2020).1080i.SatRip.Rus.Eng.mkv
36fa652e7f0bba2bca4f279922583b7368583623	1503649606	1	snis968.mp4
361041e3eecbb841dfb780d08118de5cfe85282a	1438451148	1	Moulin.Rouge.红磨坊.2001.中英字幕.BDrip.720P-人人影视.mp4
36d6b9256a0f012f89b2ebec19a75b49b4edf93e	35783310816	98	Grey's Anatomy s1-5 (lektor PL)
36687b06a42c2d7bff99fbbadbe5cc08a5eed361	303712724	1	Divine.Slice.of.Life.v1.5.zip
369727e47ea35ecdaf51825123496d7c4024889f	703875847	1	151001.그녀는 예뻤다 제6회 「밤까지 같이 보낸 사인데 너무 내외하시네」.H264.AAC.720p-CineBus.mp4
36ba88471a20b409341ef5b8db1a5ccb32503ca4	905485021	7	Red Butterfly (2013) [480p] [WEB-DL] [XviD] [AC-3] [Lektor PL] [H1]
36afcc094a111c1de3c25cbeb1f0183772106abb	459846456	1	Ask.This.Old.House.S15E22.Alaska.Generator.Wood.Floor.720p.HDTV.x264-W4F[eztv].mkv
36221f429d168f8fa3827b3841764c99f75ccad3	2566635	2	Driver backup [h33t][thecliffhanger]
37546f4e6e52e900764cf58dae60984a6636a247	59095194	12	Streetlight Manifesto Live at the Annandale Hotel
378c9e3696a7a321b403ba9bb187f1be74de1597	7532897818	1	Mario Kart 8 Deluxe.rar
3708df639cd401dfd8cad6b8e9de4bf4869307a7	2965195070	1	[电影湾dy196.com]蜘蛛侠：英雄远征.1080p.2.76g.chs&eng.H265.AAC.mp4
3783436d71c002f9f5c12d7647c46eda951cf6ac	1564303360	1	Luchshaja.zhizn.2011.XviD.HDRip.avi
37eb28d6e9c0aa3e5b3950e52cc21d4aefd900c0	877545	4	Living with Uncertainty The Moral Significance of Ignorance Ebook
37059a44809946afec7b1af0d24474cf7b7971c2	7891963	5	SketchUp 2017 (64bit) + Crack
378341e874b27934bc5d10849d57708ab5bb32db	2588895610	1	Tushy Raw Vicki Chase Tight And Ready.mp4
37ae62d83b809acbd6f8e1f9d625aa05feb037f0	296411205	1	[Skytree][海贼王][One_Piece][750][GB_JP][X265_AAC][1080P][CRRIP][天空树双语字幕组].mp4
3878cf79d48348744fcf95b8222df4c9b3863f19	1319899186	62	10.dv1453
3872cde515821cc92ebaf5c04cdbfa8333446820	2237231887	4	[psk.la]1pondo-022710_782-HD
3854ecf82b896baab8f090ebfd92dcc5b096a947	249916877	4	www.Torrenting.com - Pokemon.S17E05.A.Blustery.Santalune.Gym.Battle.HDTV.XviD-AFG
3850fd5fa9f57e827bbf78f2fb7b081938e139aa	471755647	4	574R.7R3K.D15C0V3RY.S03E07
3900a80e67087d71174e7f1a56176a1760963003	979053307	4	Kungamordet.2008
3925b295818defca9de70201e8cdb33a12c61e13	413246998	1	WankItNow.18.07.16.Dolly.Disciplinary.Wank.XXX.1080p.MP4-KTR[N1C]
39e2a289ca174b309ca44cd6e49ec6afe3cee91e	1452657430	1	MassageRooms.16.01.14.George.And.Angel.XXX.1080p.MP4-KTR
3962bc515878b4deda28fe8b360224b2e256b81f	586972861	14	24 漂亮爆乳白嫩美騷貨性癮強早上就想要裹硬男友大屌騎上去就乾無套頂操乾的豪乳上下亂顫爽的直接內射
395a561f13650f789f78f613e6e1edba8d63c22f	2930952192	4	Internal Damnation # 3
396e64088470a40a56710d50e5da3b7c45544e48	336622373	1	[Leopard-Raws] Gdgd Fairies 2 - 08 RAW (MX 1280x720 x264 AAC).mp4
39a80badd04c4a32ec0e13afaf351d5df237db50	2037561390	4	Ultimate Fuck ToyXXX
39daa96f8a16114f6ffa86dc5d8f09ca9a3b6962	1360674069	1	내 뒤에 테리우스 3-4회 합본.E02.180927.720p-NEXT.mp4
397219e311c84af4fb228a11dcb849b65c21f363	4736172798	3	The.Eclipse.2009.BluRay.720p.DTS.x264-CHD
39cf5f34d32925e59c8234c20545a366b910de97	32852	1	10421221.torrent
3934d1de9a04a57a129ec42de14ea1ec80e138e9	7789289	5	DiRT 3 Complete Edition (30.01.2020) [Steam-Rip]
39f0f7183ba9d17a8ab23999ef271bef743810f7	201246430	1	Pixel Film Studios Tools_MAC599
3a829bf9f9ea3ce29a78e321e19800f57c739674	354666496	1	Strana.slepyh.1995.XviD.DVDRip-ItarTass.avi
3a9dba7670b0507377f66955b1b8b2ae3c10b775	895920927	1	PunkSchoolGirls Veronica Rose Boobzilla Attack.mp4
3aa2f1fe98926a3645008e5e2727310967e3867b	295191883	5	9总全国探花高颜值甜美大奶萌妹，沙发调情近距离拍摄再到床上操，快速抽插呻吟娇喘
3ab15fe0da5143faf974a846f458b47996199d9b	141314868	199	Kiwi-Set-374044- - Beautiful Teen Models Porn Galleries
3acc726a67d09e05f95d427d0996094317b735bb	990458438	1	Erotic Dreams of Lady D [rus].avi
3aa26fa5bfa56f6bd5540a35d48db24a2abf4ddb	2161752716	6	fc1566130
3a835e04daa234048dfd172e0af5ddf4270d77dd	106293981	4	gc112701
3b3e160037339685b0eb648385b6e1a2ab784805	19468917719	1650	Music
3b9efc2d909583ccbefe5f1570afc66792444f2b	7790911	5	Eastshade-PLAZA
3bf3678a0d9ba31a76337475d99c817ad2850d4e	358192549	746	2020-11-28漫畫13
3bfc56c7f1446a69afb7dfb38c602945498b9d85	124118403	1	World Championship Pool 2004
3bb25561c56b9d1cc3bd44af5132f85f395e1387	581403025	77	VA - El Barrio The Ultimate Collection Of Latin Boogaloo, Disco, Funk & Soul (4CD) (2011)
3b74724a06b7bd20886f32efefd4176342366a8a	493436335	17	First to Eleven - Covers, Vol. 7
3b391a0e7734836344e2401f73803b48da2785a5	1432552	1	Уайльд. Кентервильское привидение.epub
3bef90197946e8a4af4f86ff19e8c64dc9d814a5	5289833482	155	[@factory (小西まりえ)] D○A レオタード衣装編
3bbd773bc0b8f5295f90620ffdf81fa51dd803be	17174670	2	NUKE Studio 12.2v3 incl Keygen
3b2366802d53f485f15799f9141850d3fa01e4c7	7962486	5	Aurora HDR 2019 v1.0.0.2550.1 + Fix (CracksHash)
3bcd3598b7b114d48f3406d1145bfed528322ee2	3009150313	4	12.Dates.Of.Christmas.S01E02.1080p.WEB.h264-KOGi[rarbg]
3c574d5f233da54c80bfe735d26f234752b14f0c	22334116256	59	adff 
3c71e5a4620e496f9bd610fc946ab7ed935c4b3d	3460729594	30	28.ssni575
3c313b0122d9cf7d33f4f722dedcbb3add6c5f6c	1359012938	1	Gunsmoke (1953)
3c1984d1017a5f406ed7a9b46ad99aa124036c6e	1396262660	3	JOB-004
3ce2c8fc275fd0b6c49ab2976a9ff3c52ab709c9	153981772	6	www.SceneTime.com - The Crimes That Changed Us S01E03 McMartin Preschool Tr
3cc81418d9a90202e4f6228d4a3b2518bc6656eb	1373267929	1	We.Are.Who.We.Are.S01.720p.Octopus
3d227320e6ae0011578120a6099bb2bd37db6a11	780841793	1	Правила съема Метод Хитча
3d651ef2bc8a204e081cd2b13e8356ecc406ed19	1604509	1	Бачинський Андрій. Канікули Остапа і Даринки (2011) (hurtom.com).djvu
3df7fefb140c4db2e8724486e7bd39693e180228	1185635977	1	Crazy.Ex-Girlfriend.S01E08.720p.HDTV.X264-DIMENSION[eztv].mkv
3d15117fb2a3752092695e1ce1a99d1af2e9522a	91454052	1	7512899.ts
3d7fd0daf89f3fe33b175fb48563bf7c63ff433c	209013112	3	最新网红『骚伊伊』肉丝袜漏洞圆孔小书桌足交爆射电动棒自慰
3d2d3731f312887ba086e639291d6302ae687893	30964350	2	Millions like us by Virginia Nicholson
3dd5cfd7613f5539744f6ee98b994ef34ad598a6	7790994	5	Heave Ho
3d6f1cf22c836ed4a95f9d85938bc2a8b9b178a7	77663550	1	The.Conners.S01E11.iNTERNAL.480p.x264-mSD[eztv].mkv
3dbd153901c22d4615e9f9bae45e7f69cc81fbaa	734485652	1	(Movie) Start the Revolution Without Me (1970).avi
3e5a5b6b4849bee510f4c128feacbb12f3d5351f	4684291858	1	[brattysis.com] - 2020.11.27 - Thalia Diaz - Step Sisters Fashion Show (2160p).mp4
3e7ff6e2ee5df1ed677d16063bbfcd1bb8049423	2019268561	9	第一會所新片@SIS001@(MOODYZ)(MIGD-566)完全ノーカット真性中出し_水城奈緒
3ed24c6112c0d93301f2f1bb9a2fca94d92238d8	3097870408	1	Norm.of.the.North.2016.WEB-DL.720p.mkv
3e6a33f84a8888fab8873392f3aee93f7c193ff0	1818547	1	Katarzyna Grochola - Kryształowy Anioł.rar
3ffc2278f5bfceaa86dad930695a626b2b81662e	5499232432	17	无心法师Ⅱ.EP19-27.2017.1080p.国语中字.WEBrip.H264
3fdec78a1c67c2ed26a7800d0a3cc87da71d2431	5424828998	1	[与狼共舞]Dances.with.Wolves.1990.Theatrical.Cut.BluRay.1080p.x265.10bit.AC3-5.1-HDMove.mkv
3f21b8551ada0d09bceec852fc6af7804554266f	5924536713	11	Великолепная Пятёрка.S03.(2020).WEBRip.(AVC).Files-x
3f5b7514c4d72584706ed419fd859e64ddfb71d4	7962629	5	Mini KMS Activator Ultimate 1.9[BabuPC]
3fa170f5761260c9d3f1b1dace484f2f1104fcef	242360456	16	看片神器（www.mm8368.com）约炮外表清纯内心狂热的美女教师大哥活真好把美女搞的飘飘欲仙蜗牛影视
40b98c0e5ab0906e8dcdb560acfc1e0b4b9fe641	443393393	10	WetAndPuffy.19.07.10.Lynna.Nilsson.Untitled.XXX.SD.MP4-KLEENEX
40b82a4bfbe628a29b051b55903a911a863b2557	769373246	9	第一會所新片@SIS001@(1000人斬り)(150126ryo)スケ水_#6～濡れた透けボディは超☆敏感～リョウ
40d9d7dc919ee356a5f28f3b0b15b058690e8d71	448480150	8	www.Torrenting.org - Blown Away S01E08 720p WEB x264-STOUT
4054d7d982ccd8aa6a34521f38ef30d8bc9baef9	1383740119	4	Teenage.Fantasies.7.XXX.DVDRip.x264-CHiKANi
4133b5530b52569434a6dbe3e773a5f27b52f60e	364986829	7	www.Torrenting.com - Nature.S36E04.H.Is.For.Hawk.iNTERNAL.HDTV.x264-W4F
41e1218d2b33426e612109a13e0c5fff91f28b29	1990819812	1	Model.behavior.2009.720p.x264.flv
412ac8bb9ef856369261199ca8e156d9f68c0d4c	3266959360	1	YES_MAN.ISO
417aa216c20aefb7d5446be626219504dfd8f55b	313411253	5	AssTeenMouth - Liliane
413ff1bcb2f9235ea1a2059ffe6d6d7e6d21275f	6108486504	2	WWE.Royal.Rumble.2014.720p.HDTV.x264-KYR
413459da39ea8cbacee62346d8a1fa61804ee167	230138310	2	First.Ladies.S01E05.Hillary.Rodham.Clinton.HDTV.x264-SUiCiDAL[TGx]
412390a09cd45fced31c8ce767e9c8cd7b2433b6	2184945762	1	bwb_august_taylor_vl042116_720p.mp4
41c6c0f6de8bb79797f9bcb984595dd8546037c0	164972920	3	骚气妹子穿着牛仔裤尿尿搞湿一片闺蜜拿着双头龙双人抽插自慰插对方
41a01e9c79c2e65a33dfd52e848c1e3a501e67ca	402045994	17	Stereophonics - Just Enough Education To Perform - FLAC - HellraiserRG
421c4fc53501b2508e8e51e782ebb987bc06b211	251755918	1	www.ds222.xyz 趁表哥睡觉和表嫂偷情,马桶盖上操完又扶着门干,担心听见强忍着
424fc96ecc1a18aa8c417412f45c82c04a193197	31997353641	616	[ReinForce] Girls und Panzer (BDRip 1920x1080 x264 FLAC)
42e554cc66521fae4b38da13fd1ea224c8d8899b	813982014	1	Rita la vicieuse (1983) ~ Hot French Classic ~ [RRG]{Brego}
4266aac77192a8ae9ef3ba859557f469f56e48c2	693997456	101	VA - Зимний Олимпик Хит (2014)
42b5cebb03e7da0a5a3c2306cf21067d1ada4fc8	17174706	2	Call of Duty Modern Warfare 3-RELOADED
42b014402508de7b6b051b8b9f62bf3ed5eab2fa	268944146	1	MommyGotBoobs - Ava Addams - Closed For Repairs (480p_1000).mp4
432ad8809f0050ceeb5e0b180f2b7d2adc9aeb11	1511077881	1	Britney Amber - Gridiron Bang 09.15.19..mp4
43486891b9fd59bb90e4aff3e096ad808c9d8b16	14912441994	8	Legacies.s01.1080p.NewStudio.(Wanterlude)
4328b037f11ca37322b88e4a22191e9507ea0725	604906534	15	esiea_cdrom_2000
43159b76955cbebcf3c3003195b7e27a491f2336	1161288500	14	DPMI-022.白金れい奈.ゲス痴女 香椎りあ 白金れい奈
439575d8a99741331296a6b9c1b87f475a3c073c	200945362	3	PornstarPlatinum.11.05.17.Eating.Some.Redhead.Pussy.XXX.MP4-FaiLED[rarbg]
43c32a32094d80c61cabc1236717ebabc5e74356	509684764	6	Stacey Poole - Nude Video Collection 1
43c8a73273c253dee350e205efdcaaf4d25f298c	1882300730	1	一本道 071914_847 大場ゆい 「ゆい先生が教えてアゲル」.avi
433810bb16e4ceab84fd374488a07136a560eaa2	7319609981	1	priorities_2160P.mp4
44827c5d7f6ecad58bb46efd1aca926be1c27110	21201313200	1	The Manhattan Project.1986.BDRemux.1080p.mkv
4474c5d7c849a11dc8fba4cad02801f9509e843d	286937159	303	ATK Hairy Galleria - Sonya son023 - 3 - 303 pics in 2 sets
44bc60c69540ddcca30e5bc01972d0c3708add44	168259164	123	大鸟十八&兔子先生05
4428f8910de4001fbb0e137466824e3f75dccf52	6511238	1	SiteSucker 4.0 [TNT].dmg
44a0e6e25e2392821e4af4b9f323c2110ce24d9e	4676884185	22	The Last of the Mohicans (dvd5)(Nl subs) RETAIL TBS
44c5f8c0734db4619993555cee4628d0bfa313e5	203741628	16	Survival & Silent Witness - In From The Wild (DJ Mix LP Version) (2013)
441d681f7670ff443bbb2b90aacf393d4ef957fb	149130909	16	看片神器（www.mm8368.com）小曼和包养她的干爹自驾游干爹喜欢在各种场合玩蜗牛影视
452b1dca27d692de3d97b9cc23a198bc47600001	7126574248	1	[Thz.la]DVAJ-0035.1080p
45f16195e159e622dc39cf567b96418e54349b43	2978665156	7	olo@SIS001@sit-009
453f598a36308ae2567bcc24aca31d1359df1349	8612660768	15	DanMachi III
459ae32181d0b204aef3ab516aa3b0587da39b6f	889737155	4	CanHeScore.Sara.Stone
45513e796e724d7ab362299a62dd3a51cf73f585	4140085248	1	2013.10.01 Один ли Бог во всех религиях .mpg
4521340116be8aa3686f5daf93ca35396df2a2a6	4404264960	9	Dave
4555f34e51ad13348f041a732300f034452120cc	1250815977	45	GG194
452614e79051324b8641fe6f84c5d65f8114f7dc	3040975706	1	CYAS-004.avi
45f961cf44a66cedc1031f3275ab38b62b9eece5	2960994483	1	CLUB-157,.mp4
46ff4792a8a45a0a39d2a3a8d379f9070fd4ea1a	1460412450	3	Wicked Pictures - Monster Tit Sex Zombies
46ec5763990fab889028b3203586268aa280d73d	340455233	855	2020-11-28漫畫12
46760f2fadc3471d4594e3c09607256a26681b4a	113617108	1	new year hats.psd
46b55b7dddb24f2963e1ab0c80f057173b49835f	283778844	1	Czech orgy # 3 - pornoakce by Pornostube.to.rar
46703c516ded060d9d7552c3a6e7d1a8ff2844a0	17174707	2	DAEMON Tools PRO 8.3.0.0767 incl Patch
464a09b05dcc57ee110873904d3b0d0634eb57fb	217401720	3	网络正红小美女大白皙，皮肤超嫩的全部奉上
479a08ce2beda40355c85f8357a0347341351210	685864960	1	Pervyj.otdel.14.SATRip.[www.riperam.org].avi
47feab254d032001c0a1a10087008a337c1a5a28	314707548	12	Nenad Vasilic - Seven (2013)
479fc8dab9bebf176bbda6e74e76d89bdcd51d2f	1321349424	1	Mckenzie.Lee.and.Natalia.Nix.threesome.roleplay.mp4
4730f69c581cad150e8919d2f693110a47518040	168627760	1	Tosh.0.S12E10.720p.HEVC.x265-MeGusta[eztv.re].mkv
479eef5299f04fe937f34d4b8138282c3e523aff	206032871	1	Lily Potter cheats on James with quiet Severus Snape - MollyRedWolf.mp4
48c1e6277c09c9e2fe36b8156b0123dff6c5a302	260168301	1	[SubsPlease] Akudama Drive - 08 (360p) [ABD1E524].mkv
48b99970542cdce074bb79a700c1cdc5df22f51c	198074597	19	Ligabue - Radiofreccia (Colonna Sonora Originale) [20° Anniversario] [2018 Remaster] HD (1998 - Pop rock) [Flac 16-44 MQA]
48aebba1dfc4aa222e62d2b6038d26b0bc711241	406525018	1	analmom_francys_belle_full_med_480р.mp4
4965073f6e6fd8a6fb7e48541e04bbaeec0dad06	7034521773	1	Only.God.Forgives.2013.LIMITED.1080p.BluRay.x264.DTS-GECKOS
4993ad982863bedaed9bd38ea7135330fb42280f	431692541	1	www.1TamilMV.live - Kavalthurai Ungal Nanban (2020) Tamil HQ DVDScr - 400MB - x264 - HQ Line Aud.mkv
49eedb217e5fc57b604b7871c71075ed46b50f63	1347022438	1862	VideoHive - Christmas Slideshow - 22941248
49245fb97ccb1b14ac7661b083ee29da317d4f71	501140191	14	Delerium - The Best Of Delerium
493faf7470b0cd3584fa2972ae9874f070c12697	620532733	42	107SENN-014
49856b02950fece224668e7af88a091c5445bbb1	2868904970	9	光灵 Bright.2017.INTERNAL.1080p.WEBRip.X264-homefei
492dcaab1ee7b0698d7f369d9b76c248c7df3dbd	2233061376	1	Cuphead.iso
4927beeae96ec85051a582eb00f6126b90d2f7d8	381313051	2	PixAndVideo: Amirah Adara - Youre my belly dancer! [XXX] x264
4ab5c7d3068d2a22f9f5fe15dc37132ebf5c0f0b	7962135	5	Uninstall Tool - 3 5 10 Build 5670 incl fix
4a046bbc7d4a17b22394bf30003571a283c0bc15	250512956	1	CzechCasting.15.05.22.Natalie.8749.hd720p.mp4
4a31232e3e8714a1a80adc2edf24b4a490aff917	2578591617	1	0462 Сёстры-колдуньи Йойо и Нэнэ. Majokko Shimai no Yoyo to Nene
4aba08ba46ba2dd05a89b77f066f602035dac325	4132343	1	pornololitas NINFAS (pthc pedo) dark robbery lolli 14 years LOLITA8.jpg
4a3d04b9f4ba47ac961d869a84b2df18dc24b52f	2184150479	2	Os.Novos.Mutantes.2020.1080p.BRRip.DD5.1.X264.EVO.DUAL-VAL
4aa2138532290d21e059935e8279d8c48bc47c57	7963620	5	Autodesk VRED Design 2021.1 incl Keygen
4a627e9602aab2bad481599d1dc09b8b52ab5f58	15636035	26	[A.O.I (Various)] Mixing Girl III - Ishukan Shoujo III
4a54625328090479d69bbe563c854cb926998a66	12256485988	5	Dark Alley - Gang Fucked 1 - 5
4a2af051c15bca9dbedf942faf7d996f816bc587	1885718124	1	[JAV] [Uncensored] pacopacomama 030818_232 [1080p]
4a1a6db7af4fde9f9a27cab3f4b08391823a5688	2932856817	5	A.Teacher.S01.720p.LakeFIlms
4a3f9aca9b268a7fe60ec7f40a7fe0106863678a	1055383	5	Semi-Riemannian Geometry and General Relativity - S. Sternberg
4a2afe254a97dc3691a9cf349ee53c1a4889c4ad	855233289	1	Лига Чемпионов 2013-2014 12 финала Второй день Превью НТВ+.mkv
4bb7728ecb6f39f96edefd349a5b2f2cf893551e	7962260	5	ShareMouse 5.0.32 Enterprise incl Patch [CrackingPatching]
4b52fe3ca3b02a174ba03bc7a364338600fb8a44	3725971	4	Гофрид Лейбниц - Монадология (Librarium) - 2020
4b5a52ce5443eb23ce2d9641f0245b3a9fad534b	3665962509	1	Ветка сирени (2007).mkv
4b2322531ba7c51dd1b72ee137317b56211ab364	738316883	11	By-vagu-062
4bd047e5c1b2bc3a756c730c07a6b2214075d791	7040501173	8	Monsters (2010)1080P TBS
4ba14f71ccfd971a7069ee0ed375df54a77c029c	617466843	1	SaS-39298 Aspen Ora and Tommy Pistol
4b578438027d832187d5b2a43f3fa0be4f76cea1	341878498	1	GreyscaleGorilla Plus Hub Plugins for C4D S22-R23 Win.rar
4bb71308f877b0d94602362465b6e6df3e68e7ad	564872864	7	The.Casagrandes.S01E01.720p.HDTV.x264-W4F[TGx]
4bf96cad489e929f953265e7e11b7c52d8c391bd	2240371	10	(C66) [Sago-Jou (Seura Isago)] Ten Kara Forte! ~Fukkatsuhen~ (Galaxy Angel)
4be4031469b56e810fd4bdf0bbafe8b4068a53ca	524282620	1	Family.Matters.S08E18.720p.WEB.H264-HOTLiPS[eztv].mkv
4c4e5a9b5cb07b6f5bf4d07047e93fdd65e91b38	6243097	1	E. L. Doctorow - Miasto Boże.rar
4c8bfce882fc7471bec45eef5cffd0355620bf82	409228869	1	[TeenSexMania] Bella Breeze - Playful lovers spice morning with sex (17.11.2020).mp4
4c9c4c31426224fe7a460f8922a3c3a8ec49ea9d	1297645568	1	TODOS LOS GOLES DE CR7 Y MESSI EN 2011_MARCA TV_2011_12_25.avi
4cba0e430aa2455dac9b1c12d5a460f9423286a7	136881835	29	[1999] Issues - Korn - 130mb @ 320kbs [only1joe]
4cdecc95a9fb838d843e770efa99baa0365a77aa	174446710	1	098.rar
4c94a09fa670bb2dc5a094215ce71f554044c0e8	7961978	5	Manycam Pro 3.1 with serial
4d98a6b6ffae9ccd2bd94d51a517053ef8e9d42c	533038437	1	Say.Yes.To.the.Dress.Atlanta.S01E01.Virgin.Brides.Wear.Sleeves.720p.WEB.x264-GIMINI[eztv].mkv
4dbcc42b7faa2ed620ba3400e8dd0eb3da01c550	368858404	1	Out of the Blue - The Definitive Investigation Of The UFO Phenomenon.avi
4de5a371029e1a9660253fdd2602f9a21131ea5e	7961999	5	Free Amazon Prime Download Premium 5.0.10.104(x86+x64)
4dad40f9ce7c0b407be8ddd0111ae6b3022d1c75	223693176	3	精品特色酒店偷拍艺术院校清纯漂亮的大学美女第一次见炮椅不知怎么用,男友亲自言传身教操的呻吟大叫国语!
4dbcf002b4de646499d8b34294e8263eb6e7b27f	364909794	1	[Leopard-Raws] Gangsta. - 04 RAW (ABC 1280x720 x264 AAC).mp4
4d0e9c95a19d3f5d218813bb98ccbb96a8f1e58a	2589923611	545	The Dogg Pound
4d0cd2158626c6fbd9090013f56a19fe581b84cf	2491414928	5	Chuma.S02.2020.WEB-DL.(720p).ExKinoRay
4ecf3c369568ff309cbdfa1151977eb8db737907	1356073623	137	BBI139MP4
4e35c015422b9f9d6105186ae1d9b64ffc0e7065	368556923	1	Жили-были дед и баба (1988).mkv
4e21f367f3b5985d6c262d42f8e1fe95dfa48279	2681538904	56	X-Angels.15.12.10.Angel.Piaff.XXX.1080p.MP4-KTR
4eeb76c11749d89be6fa05fa6ea68262d77f6a81	671085883	1	VickyAtHome.16.10.07.Bella.Rose.I.Like.Girls.2.XXX.1080p.MP4-KTR
4e1efac9a9c928dc6e31b4abeab1617fa459a3c2	2277837245	5	[PPP-Raw] Sonic Soldier Borgman: Madnight Gigs
4f10b8971c61511859bbf4aa92049949a32b0e77	207045352	3	PornMegaLoad.20.11.26.Lacey.Starr.And.Michelle.Thorne.Laceys.Bday.Present.XXX.SD.MP4-KLEENEX
4f3ea8ff9a96955ecae8ab4a3ff30542ffeac29b	988249157	10	三个角质女孩准备硬公鸡
4fd97f3c9245ee3653f2a9bedec59bc4016c68a8	1130389009	1	LegalPorno - Daphne Klyde amp Brittany Bardot 4on2 11262.mp4
4fdd9aef71a16097b5b4fdca37e931eca6cc75b3	1179123768	15	HZGD-070
4fe6cd76c9a4992ab98940e67666c339b2cb1bfe	18321884	1	Fantastical_2.5.16__TNT_[iMacAPPS.net].zip
50acf74c58ad6589a69ce63100b89f1093c6a810	367808994	1	Atlanta.S02E02.Sportin.Waves.1080p.AMZN.WEB-DL.x264-worldmkv.mkv
509f9edbf355a524b8b37ae34afb4bfd835a461c	915905375	5	www.Torrenting.com -Hotel.impossible.S01E03.720p.HDTV.x264-NORiTE
50bf72d6247e8253806393f3e422baf47729c648	3814327125	30	Audiobook Series - J. K. Rowling - Harry Potter - Scifan_ (07 Books)_M0516
5092f085c8dc5308ddd6745c36c28a8c1d6f8949	828969	2	While You Sleep by Stephanie Merritt MOBI
506e7f89cd92ca6f37c0451d0436cf26120e9763	508911473	4	Asquerosamente Ricos - Temporada 1 [HDTV][Cap.107][Castellano][www.PCTmix.com]
50d44279b82953ea48574529959f4f346ef24167	8534663168	13	Batman.Begins.2005.DTS.PAL.MULTiSUBS.DVD9-DiSHON
50b5aa45c2d97b4edf13a7a4096529e9d6fc006f	15724607488	25	Gde.logika.S06.WEB-DLRip.25Kuzmich
5078cb9baa92c77d60ce12bd50bc7cbddc7c157e	3904637123	2	Haydee.2-DARKSiDERS
509c9a95a053662b4f4dcd8f0276540ba84121a2	369017407	2	BBBHJazmine
50e81553cb1ede3bcbd3b2dfaa3134613de844a7	157548702	5	微胖老婆弯腰在洗头 我趁机把大屌后入塞了进去
50ecc088925b1fb76dffbe8f816d55c13d8cc0b2	1851661	1	Православный обряд погребения - 2006.djvu
50750610873651cb72427fb6fb85f9a9d62d53de	10874967	3	American Bar Association Guide to Wills and Estates, Fourth Edition An Interactive Guide to Preparing Your Wills, Estates, Trusts, and Taxes
50f8d00fef1918a2850750cb64ba7a88819bb5f3	2266755591	1	Candice Dare - Plug Out And Dick In 11.27.20.mp4
50226dd497137cac4efa80cf938f3571490487f6	259215454	1	dpg.17.06.02.skyler.mckay.oral.exam[tk][480p][rarbg].mp4
51ac5629cd517eaa6a1c95e0901d889cf887ac12	122331458	9	www.torrenting.com - Transformers Rescue Bots Academy S01E09 WEB x264-WEBTUBE
51f7a735689ba360e84015258d55e6b730a5e318	57203577	1	(サンクリ61) [行脚堂 (しけー)] 貧従士弄り３ (境界線上のホライゾン).zip
51cfd04b2988409054a083a92d49687d53dd9355	1462982656	2	Killer.Nerd.And.Bride.Of.Killer.Nerd.DOUBLE-FEATURE.DVDRip.XviD-Maccie
51a394fb7afb8cbbddf19b78c57ecb3a2c1b5958	3425747840	10	Quanzhi_Gaoshou_2_[Anistar]_[WEBRip_720x406]
5103b4c07446a12f0013bfaf7cc288d3dac2aaae	183412652	1	Are We There Yet S02E05 - The Gold Party Episode.avi
514980523bcc48342e24ceb748f62679aa1264b2	627068231	1	[SILVENGAMES.RU]_G_S_in_the_K_of_F.cso
51ddb2b36bd3d962e1a449ce7edc9f3f3e6b1ce6	8506186	1	Jeffrey A. Lieberman, Ogi Ogas - Czarna owca medycyny. Nieopowiedziana....rar
516c346551e689d0037d46776d4e719753f81ffd	731369428	1	Armbian_20.11_Cubox-i_bionic_current_5.9.10_desktop.img.xz
520efbb166af9e90a403259a4797ec94aa432936	390139904	1	SP.Evroskazka.2016.07.11.SATRip.[www.Riper.AM].avi
5286b3a1ea2039e20fed1e178b52e0120a67af44	108338990	6	HGC_2073-云盘泄密流出视图气质颜值美女被包养SM调教成性奴-1210
52647b583d63dd49731fcfb1449a874a66d13251	1122795336	4	Midnight Movie 2008 DVDRip XviD AC3 MRX (Kingdom-Release)
52cca5b80e8afbe148a002b845178feecfda3890	5912973256	8	Hanyou_no_Yashahime_-_Sengoku_Otogizoushi_[AniMedia.TV]
525199456528fae1ec99eef9bcc033872b772cb0	1225864194	7	Winter Resort Simulator Season 2 [FitGirl Repack]
520807602676401fec87e2c560c657a2486536de	735787008	1	Una Vespa 50 Che Mi Toglie I Problemi.avi
52ede87f9ddbc053774131cce0034836065669e0	31480457	169	[Karura Syou] Gogo no Queen side A
53e002aa21f5eba659a2cbebf6f0820a9d2f6301	2265976845	1	Ip.Man.2008.BrRip.x264.1080p.Triple.Audio[English-Chinese-Hindi] - MoS (1).mkv
53e6e9f06a709049bd24b9de57990dffe395140e	6513731342	8	Star.Trek.Lower.Decks.S01.720p.rus.LostFilm.TV
532f07b3d20b1dc77418407ff95c85d5945cbb0f	240217385	1	[大見武士] 誘惑!! もぎたて都市伝説.zip
53a97a83b94ef33a3469cfece090b196533f7b5e	520353646	12	HJD_1733-逼毛稀疏干净的良家少妇美女谎称加班和同事出租屋肏逼淫叫：好爽,我要哥哥操我,干的逼逼太爽了,干死小骚逼.-1201
535a47a3181e7aae76517fa70f554e21da525c67	1539656895	60	JUFD594 AVI
5373e7cc41e9b72e22f802589dece8046b343374	208756897	1	Apple Final Cut Pro X 11.3.4 Mac OS X Cracked - [FirstUploads]
53b63bf686343f7ae50c9774cd792ac45de03f7e	766386047	1	www.TamilRockers.ws - Evvarikee Cheppoddu (2019)[Proper Telugu - HDRip - x264 - 700MB - ESubs].mkv
532cfb056745ed61d7b2511ef5693dc97691b982	927628	1	Montero, Rosa - Dictadoras [16312] (r1.0).epub
536407d4344c8c7b92cee45ce55cfdb480030a8c	3532716672	24	The Warriors Way( 2010) BDRip 1080p Dual Audio [ Hindi ORG DVD DD 5.1- Eng 5.1 ] Tariq Qureshi
532d1ca029eb99c57e74ef41b9f12d54f184f29b	410133402	15	Vinnie Moore - Time Odyssey
5371c8e701c7749f6324d81aec64372546fdbfa1	184286494	3	The.Trip.s01e02.2010.Swesub.TvRip.Xvid-little_devil
53cc6906d1d8dfceed7872771867bf2ced8241a7	2923913338	2	Windows.10.Enterprise.x86.ES_es [www.InstalarWindows10.com]
53fc67b0f726ff2bfa975d26e6c84672baa510a8	1296243374	1	IENE-519.mp4
53e58fc83d89ba0867d576c2a50f82ed9512f6ce	31197583	8	Вадим Кожин - Мифические ребра
53207a28fc504c266eac8f5a1bc0cf6b1c69d5cf	4089491456	8	7 perle
532fbc8b9f9e9a4f79570fd72e014b5e9da5e1e2	738814758	4	18OnlyGirls.12.12.19.Dakota.And.Mia.Girls.Make.Love.XXX.720p.x264-SEXORS[rbg]
5369d3f66b4b26523d9e841b6ece5e478fdda1e5	8782143270	21	Enen.no.Shouboutai.S02.400p.NewComers
54827e1c63dd133446be841d9471b59d6d85b927	2267300155	1	RKPrime.20.04.06.Carmen.Caliente.And.Kendra.Sunderland.Kendra.And.Carmen.Take.Cali.XXX.1080p.MP4-KTR[XoX]
5456ea6b08c75ceaf821f1bafe53cbcd49645329	214036454	137	OnlyTease.com.18.02.09.Becky.X.XXX.IMAGESET-IEVA[rarbg]
546e38dd6d2a3425fba5d7cf9d70db469561724b	651470379	5	今晚肚兜情趣主题，美乳粉穴，舌吻调情 配合无间
54feedca06dd850931b4149b214b8ad64905a94e	192325392	1	200360 - Bonnie Shai_480.mp4
5488465d00e59934bb3fdad7257a1cdd61778371	75395694	13	Gliss - Love The Virgins
5457f02b56faed669f6c37dadefef508c4b80881	8944215290	4	[XTORRENTY.ORG] The.Debt.Collector.2.2020.PL.1080p.BluRay.x264.DD2.0-RX.mkv
5406981340acf993ad1fef3e7f3cad0e08c454a4	109800458	1	[DDFNetworkVR]Sofia Lee - Easy Access To Her Pink (05.22.19).mp4
549341ed224051a5a4ca2803aabb3c3f2d901dbd	2201448027	12	[CASO&SumiSora][Gochiusa][GB][720p][MP4]
545b9c92a25c506d6c23aa89470b217ea8e7a8be	2339327182	26	Saint Beast Kouin Jojishi Tenshitan
55e3a46d6693c51894b638f74234029b0669001b	172511008	40	The Very Best Of - Fleetwood Mac 2009 Retail
55801f60fcb0f4e6575596347eaa59f0ca116e25	903724229	5	Pregnant Yvette Rucka (5 Videos+Previews)
553c1822e88793ba6fef609cf74e3a65c4466f7b	4530219116	9	gta b20 pro edition
5594bc28c1a1ef067210b81a47967fd3cdf85cb6	781141634	2	Olympus Refuge Of Gods ~ Italian Hot Movie ~ [RRG]{Brego}
5519dc6b54a6248491dcd56154de1c2c25ef50c9	3979856170	12	[DMG][Lost Song][BDRip][1080P][BIG5][MP4]
55364519f59b3708c1461f1d3105ce5b526837e3	172505874	8	By_Family.18.01.22.Chloe.Scott.And.Olive.Glass.Helping.My.Step.Sis.Moan.Like.A.Pro
561939d89245d2d5be01d47b8935d5c7b7b13b71	1707587300	7	olo@SIS001@HAWA-063
56544c5eca55061c457e024597ed9519961ecb7a	79660476	1	[あまぎみちひと] マジカルフォール～堕チル孤影～ [中国翻訳].zip
56a8b1bf609b6128147b92c883df6131abfe377a	1065867435	2	Sakura.Dimensions-DARKSiDERS
563024b256afb970b73f0cfda5f44926394c22a8	18927515	94	Vlad [Y118] Alina - 045
569ad04b6177afce6cfe915453c9c2ae4f1267b1	289407096	6	20201126 (2)
56ea754e8ad829fe98a5946a2a722253293b34c1	92344754	43	Sbuinho
575a152bc08ceeb488cad80e46cac96b9dcd2026	129629228	7	www.Torrenting.com - Thunderbirds.Are.Go.S03E07.Rally.Raid.480p.x264-mSD
576dc1ea9f01b703ef8fcf522d6f205e6d95813c	7961253	5	Adobe Acrobat Pro DC v2019.021.20061 Final + Keygen
57839ce685225441bf985bc7b524247eb387e164	2867498328	14	gachinco-gachi633-HD
57c7d07833ca31f33fdfe6606417873fd9fc7ed8	756508878	127	Various Artists - BIRP! September 2012
582f938d964b2f1c51e3e8641a99e0fa00d21b72	1292638128	21	Lukyanenko_-_Malchik_i_tma
58f1249f5bd99efe41d0c81c997dab925316378d	1729394110	1	Crusader Kings III
5899a94db0ff008f24e5eb02c2a8036f670af39c	7789026	5	Call of Duty Black Ops 3 - PLAZA
5878002e6ce51ea36e7139799240a792d311f2a7	31117299	27	Megan Fox Cameltoe (27 Photos)
5851da9895de0ee00d329a341af8626e170a1ce1	1837638309	3	Gran.Torino.2008.BDRip.XviD.HUN-ALLiN
597c7ea25285d062d47ca7a5b5f584d4996a1a16	247539173	242	Daz3d - Poser - Morphing Fantasy Dress
59015c8bdf4de871441ed6d0a5f0ff52bfb97818	2753346104	1	2020.11.26_UEL_2020.21_R.04_Highlights_[rgfootball.net]_1080i_RUS.ts
592215b6dcac66a698dbda2f8074e71cf8d66020	1841989218	2	[EX-TORRENTY.ORG] Greenland.2020.PL.CUSTOM.480p.WEB-DL.XviD.DD2.0-K83
598f321baa67e2cba61bedced794f69a93d72f27	109497927	1	Zettai Meirei Iinari Omocha v01-03e.rar
5900674d21e70758aa8912321c6a6bd97cef7d3a	1156249985	31	27.venu810
597a2bf4d0b13a7c2f26b99f12919bfaf4476951	26007181	69	(Dai 4-ji ROOT4to5) [TEKETO (Sanada)] Hajimari no Asa 万物初始的早晨 (Fate stay night) [Chinese]
59be4a55da8dce53aeb44c59aca4ef35a7ef1355	2786367096	446	The Bach Recordings (Hogwood) [20CD] (2014. mp3)
591860455864693baedc422127a8fbc7e7648d77	109550225	13	2020 - Ancst - Summits of Despondency
594f5e7af7a95fd6a27ae3aea0d8cfad15310e80	3261850140	89	anb171
596aae75f45483b4d50a35ec5d69f492f0d04889	17243164195	1	Liga 13.11.2020.rar
591713deb2e7197136e4137f52fcc72372e5efa1	7963055	5	NCH Doxillion Document Converter v2.08 Beta with Key [TorDigger]
591db4a0e662f969fcdd69519d54eb149f11b7cd	5062693083	4	National.Lampoons.Christmas.Vacation.1989.720p.BluRay.DD2.0.x264-LEGi0N
59853ef51cb43ffc2af0290ee13985a50cdb86ce	305256718	1	[DogHouseDigital]Vicky Love - Creampie Cuties 09 (06.02.19).mp4
59dcc84279d4934f8e5fb071650ef52ad22e79fb	140303215	8	Cock Inspector Paige Ashley Fucked Raw XXX
5a81ef50a96f090c5759ab2b7474d74305fe9b26	678910842	17	Справочная литература по драгоценным металлам
5a62e283cfa9c1c01ffe45b3563daf21ef67e482	654947108	1	Peternorth - Nadia North (Faithfully Unfaithful To Love Honor And Share)
5a63052bb937afdbf23bff1cda2d9f77a2415c93	56879425	1	[DKB] Dogeza de Tanondemita - S01E07 [1080p][H.265 10bit][Multi-Subs].mkv
5a680d58f2bb37be84e6ffd5e48aed3ad9e36bb3	7963341	5	PC Cleaner Platinum v7.2.0.13 + Fix (CracksHash)
5a83b0ae4e5dd2df52244d4ffdfb1e67944225be	1594400768	1	Duerme.pequena.HDRip.www.DESCARGASMIX.com.avi
5ac94e976af7c2242f7f3ce47d381083d2bee7be	332652358	5	[Milf Lessons]Eve, Preston Parker-EVE
5a9609665dc00f51c8779ffed22e2adff8e3d6e9	360842881	1	CLIPS4SALE - Xev Bellringer - Big Tit Daughter Sucks The Cum Out Of Daddy - 1080p.mp4
5a4e364c4b336f0c6cbd5d706d324a4386190ded	1177844376	1	aak-019.wmv
5a9820dbb368a9963ae51af231f46e64b53fcaff	646642669	100	VA - Новогодняя Гуляночка (2011)
5bb4f5e4eaf8ba3b17150c2f84ceeef519a06733	7607574912	2	UEFA_Champions_League_2020_2021_Group_G_Juventus_Ferencvaros_HD_dfkthbq1968
5bafc935d3a4f17fd3c03dca7acf2a0cf5255e4c	3066004641	3	Ladyhawke (1985) 1080p 5.1 Blu-ray
5bd087f94bb7cca8a1c5c78eeed5a32cb9e6d34d	1286721497	4	Suspiria.1977.REMASTERED.ITALIAN.720p.BluRay.H264.AAC-VXT
5b88a102558ead479cd9627bee4100baef418f4e	1228434450	2	Don.Stanislao.Post.Scriptum.2020.PL.1080i.HDTV.h264-inTGrity
5b0b5681733e811903fc8ad64f3e3dd3f883f165	23453	4	MagicArch_FTR_S_RU-XX_RU_51_2K_NULL_20201124_BMR_IOP_VF
5b94701163d25bcdece0a261758fbb34153f3782	7789909	5	Deus Ex Human Revolution - TWin Pack - PLAZA
5b2a6e556b2a6f070340f9eae67a7729b1c82fba	23351794	1	Боголепов М.И. - Советская финансовая система - 1945.pdf
5b6cb7bf8abc685126673d20339f727ac0e44fba	291318834	1	[Anime Time] Noblesse - 08 [1080p][HEVC 10bit x265][AAC][Multi Sub].mkv
5b072c0eceb61f8033c4806edaf579cf162236f0	328825809	1	Summer Raine - 10 Man Cum Slam 9 (2005)_.wmv
5bbfdad0d6f6b89d235b4261b2e0cc7c1e674bfd	1018877331	8	第一會所新片@SIS001@(FC2)(902170)イラマチオ連続４０回_現役プロゴルファー人妻に中出し_セックス中にケンダマ＋エロ替え歌
5ce146c8475fd24bc77b56da2c6720a4840c6800	3320603849	1	FaceFucking.15.12.17.Mackenzie.Scott.XXX.1080p.MP4-KTR[N1C]
5ce7505e79492fff331fdfb86a264779d8271096	38192574	149	Private.com_15.10.30.Private.Specials.123.Teenagers.Want.It.Inside.Scene.4.XXX.IMAGESET-GUSH[rarbg]
5cb4f679352d5582a499836b068296123d229bf0	5351084350	58	170913-NA-Alex Blake, Peter Green-2-4K
5dd0ae4f064ed4b954ca461de33421099e911002	309656621	3	Photoshop In Depth Brushes
5dd46a7b6e8ddb7d4a221c68c0081bf4839aa826	538928364	1	Marvels.Cloak.And.Dagger.s02e05.1080p.WEB.x264-worldmkv.mkv
5dfb16a9ac269b595170c0faa2419b4b4c9b783b	734720000	1	(1973) Quelques messieurs trop tranquilles.avi
5d33dea71a42a3e9d55f2337c9b40259502fa865	193552175	7	Марина Дяченко, Сергей Дяченко - Солнечный круг (Сергей Соколов)
5db95e9a6d295b2aee3480c795b1a3577dfe116b	4646912000	16	[HPL] Guerre fra galassie (Ep.1-14)
5dda0741b8e2ad5dfc1dbc36e8664e03fba4ef7c	4178634062	25	SDNM-099.HD
5d275d6c7e1f3ae8ad76d2c0d1137da975ec6c87	499454392	3	Big.Mouth.S02E09.720p.WEB.x264-STRiFE[rarbg]
5db3ac8e3c2a97e7c1d6e0bbeaf15088ac958989	1009427031	1	Julia Ann.mp4
5ddce5c513099344b89c849a3986895784cff2ab	4729573562	1	Coyote.Ugly.Unrated.2000.720p.ESiR.mkv
5d32ec810ec643338dd9659aa03f1f77d1d32bdf	282257432	1	Armbian_20.11_Orangepizeroplus2-h3_focal_current_5.8.16.img.xz
5edd6a30d2e71983c4cf66c8edd2e32e8b9c0c04	1477332832	1	Quand le Piege se Referme 2017 Fr HDTV 720p-TiG.mkv
5ef412d30bf059cd72115e099df6ef9d7a829a39	3338785289	39	pacopacomama-101910_218-HD-ALL
5ea053e39c46082faa4a03195331e69d6d3ec047	1467228160	1	Tcoy.2020.O.TS.14OOMB.avi
5e966246294010a6f837047e02254ebf0a9f446c	2451416275	200	Joseph.Haydn.Complete.Piano.Sonatas.(10.CD.Box.Set).2007.Flac.Tracks.Lossless
5e14bc2f2614565de6209d1571061210c0b7b19a	1863530933	3	Waitress (www.kinokopilka.tv)
5e9268ff5434f81cc64ac51abadb436dea2a04a7	2024670	1	как самому расчитать и сделать электродвигатель (виноградов).djvu
5f8b9fda6115913f1989f932249e1dd899edc328	1019270350	2	Temel Reis (Popaye) ~ Hot Classic ~ [RRG]{Brego}
5fe871d341bce56fd1a16800d8b41e82d5566033	314841309	1	在魔王城说晚安 第08集.mp4
5ffb698d09b99c266a4f5038ed1293c283ac1f3d	7790067	5	NBA.2K14.Crack.Only-RELOADED
5f53f5cdb7934f4391bdfb50d8c85f177ec6bc46	2431652139	16	AGAV-039_2K
5ffcfd51cb5c95d619a233d0cc74eca117e57a58	22537784	1	Галкин П. А., Галкина А. Е. - Дачный дом со всеми удобствами - (Дачный помощник) - 2015.pdf
5f1b55bda360d3f083da5258fb9d81ee685e6e5f	1296413870	8	www.Torrenting.org The Crystal Maze 2017 S06E07 Celebrity Christmas Special 720p
5fb040b14e16cf6feee27c6fbdcb72b38596a67e	2876808	3	Reader's Digest Family Safety & First Aid by Editors of Reader's Digest
5f33d9968a50ac772965ac9a620d96f5dd5108a7	734945334	2	Wanted.2008.SWESUB.DVDRip.XviD-Fuvisa
5f915079417444e085a8200afcf31a37264f0ab0	1254918623	58	ADN028C
5f1627b0bbdc601671db453c06b57989e42d4fe0	6598711	1	Opowieści z Narnii. Tom V - Clive Staples Lewis.rar
6077ee92782291dfceee0cb329ecd41df429b300	7790482	5	Warcraft II Tides of Darkness (1995) - WIN-ALL
60f2865f4ab259d03c26baf1f531f5272923315d	4570711293	6	Transfixion 2 (2020) WEB-DL 720p
602c08e5cb85521317900cd5506ed74f1d12557c	1605123437	1	Lethal.Weapon.2x01.El.Gringo.Loco.ITA.ENG.720p.AMZN.WEBMux.x264-Morpheus.mkv
602e4ef7a1903aebd007875a86e48cfe1fbe5883	1391894528	1	Kyun! Ho Gaya Na[2004 DVDRip XviD] [desidhamal.com]
6013d08a0a142b7d2bbdc16715619f170926a9a1	315427937	127	MetArt.com_20.11.26.Susie.Picnic.Fun.XXX.IMAGESET-FuGLi[rarbg]
60165d96db0f1dfdcce9d9dabdddef0df6eba0ad	186239309	1	[JYFanSub][Gabriel_Dropout][11][GB][720p].mp4
600cb8a45b8580119f59866b473131b5dd4d77ca	967805009	3	Power.Rangers.S24E11.720p.HDTV.x264-W4F[rarbg]
6008493b9cf1b91bc62d00702f471725694d95da	2031343771	1	IGG-Mountain.Crime.Requital.MULTi13.zip
6135a7acaf6b9159814aa550e37db601f9448b07	24205146331	365	Hitlist Week of 2015.05.13
611da7870faf8463014623605a7fe27396c89d08	402139410	2	Amy White, Marta LaCroft (A sneaky surprise)
616dd3dc3b064897bd9b124b49bd87c68b925317	7790004	5	Inertial Drift
61dd077d2e65ba9c73a57f5f7a385d7287b35218	1066076164	1	Fargo.S04E10.WEBRip.720p.rus.Uncensored.5.1.HDREZKA.STUDIO.mkv
618f490a97a1fcdedbd8e7e5e31c986c1cf95a1b	352868352	1	Poterjannye.arhivy.Poterjannye.sekrety.Nikoly.Tesly.1998.x264.SATRip.avi
61093cf2663ca18cf7a2703bf6877e938470017d	16007575	22	(Reitaisai 6) [Ruiketsuan (Namidame)] Fuuzoku de Hatarake Komachi! (Touhou Project)
61540b39f0c91906fb66f293b5db7521da2e9b95	287781027	23	Hari, Johann.Chasing The Scream- The First and Last Days of the War on Drugs.2015
6128e046c718830769efb1ba39ca91d92328349e	164972920	3	花季漂亮白嫩女孩儿无毛粉嫩小穴被大叔又舔又干刚轻轻一插妹子就疼的直叫流出血1080P超清原版
611dab2c504a9cb560e1c86317638f2cb10470b1	12187391	1	Cykl Sophie Brinkmann (tomy 1-3) - Alexander Söderberg.7z
61eeadd0ee5aa6952431337c6447cacc16e557d4	2215188402	4	Big.Little.Lies.S02.SD.LakeFilms
623e4315218b44c948fcf1a65a864cd5a1104310	425796811	3	NOVA.S44E17.Poisoned.Water.HDTV.x264-W4F[rarbg]
62622f10d51dbf8d885068e964765743f951303e	3518681491	3	Where.The.Sidewalk.Ends.1950.720p.BluRay.x264-REKT[rarbg]
629a8d3446e6aadfbf26274e58a8be48d9ebd749	110770426	11	Black Tiger - Black Tiger (2018)
62d569c7cd6bb7f340eae37484e8dd57657c406c	492944902	6	www.SceneTime.com - I Was a Teenage Felon S01E08 The Fixer XviD-AFG
62b75bf3bdb73976838055d3aba061975cf771a9	1502502428	1	fault milestone two 上 DL版
63833f1b232df134ce442d4bc15d9585953b1826	576217088	1	Fear.the.Walking.Dead.s06e05.WEBDLRip.NewStudio.TV.avi
6363052a15f64f6b0ac7984713d3257207c07836	7893979192	1	Durchs wilde Kurdistan.1965.720p.Bluray.Rus.Ger.HDCLUB .mkv
63b5a701168cfdf87c2de72265df52c7ccf27f37	55752775	7	Skid Row - Basement Tapes (Demos)
63e586c29d983d02318107448eb1282f2bcd31ab	4742161179	1	201118_nekopara_vol4_DL.zip
63ebd42223b5413aec56532a7cdc5b16d81f27e2	17174724	2	Defending Camelot
63824480982a28aa3df6f0ab0bcc3472059e82fd	494132720	3	Breaking Bad S05E06 - 720p x264 [MKV,AC3,5.1] Ehhhh
641d8741f3c39ec1871f6f184926f4132818580a	34609542826	745	PUBG
64a72454f115f2713bc30ee1751b2019b6df2f25	812168	2	Operation Greylord by Terrence Hake, Wayne Klatt EPUB
65faac9902b64641651677521128ceb2ba2a832f	333668353	1	D.C1x02.es.avi
65b9140d1452e44955fea3026c642ba76ca0497e	71522387	84	SapphicErotica.com_14.07.14.Nancie.Nikitta.And.Anitta.Rattan.Threesome.XXX.IMAGESET-FuGLi[rarbg]
65d601b4266f024cf4addee01ae6ef32b2806f8b	761772284	5	[AgusiQ-TorrentS.pl] Deep.State.S02E06.PL.480p.Ralf [jans12]
65d323b4b99b4ac3ccf16fbaf89ffa78c98f9cba	288370067	7	Somethings.Killing.Me.S02E04.Family.Secret.HDTV.x264-CRiMSON[TGx]
652785fa3a5206a5ad5b184e901907867bf3e4c0	2543440952	26	060617_536 大噴射！潮吹きスペシャル版
659206d1501e0b04d068a46e6ecc5f7a1d344be0	17174688	2	Wing FTP Server Corporate 6.4.3 incl Patch
6604bb70a13e462df15407efa859e65bd0124329	1918527344	2	Atlas Shrugged Part I (2011) [1080p] [BluRay] [5.1] [YTS.MX]
6658a31eb8d0ca627609ad789154140e32dadb77	512221874	4	TrickyMasseur.Roquel.Big.Tits.Massage
66f456d596099962f293fd55cf36a63da9c75e85	892167559	1	148.sethigh.wmv
671e0661087229ade7cd844b450480769682611e	1976723176	4	[ELECTRO-TORRENT.PL] Snabba.Cash.2010.PL.480p.BDRip.XViD.AC3.J25
67dd674a77cfe31f2d14f173a02dcc67fc61841e	7961757	5	Wolfram Mathematica - 12 1 1 x86 x64 incl Keygen
67c3f9ca8c538056af83066a9949124db82ce025	7604916850	1	12.12.2019..ЛЕ on-line.Тур 6.Лучшие моменты матчей в прямом эфире.mkv
67c3f0921de5d4a56590a7dcd3e2dfb04a7f763f	464138800	58	Lastlings
670d9ee8438f86d2653b4a7130a2c20c81a7d84b	584189813	1	bgsd-361.mp4
674c92ffe317471c39daeae90e33a5335834a54c	2188356964	6	RBD922C
67b74d13559d817984261c23ecd66b4baefd874c	356418270	1	[PornHub] Luxury Girl - Daddy Let Me Play With His Dick After School (2020) 1080p.mp4
67310bf00e8dab8ee9d88f37b7b3f95a04e06358	1041804482	9	Black Veil Brides
67ccb820da5bbea7398124330f38081b5ae4b665	71917044	1	FlipCreator_v4.9.0.6056.zip
671031c73f63c918d64a1c41a6b28d482f3f217b	98998409	115	Only Opaques 12 02 27 Lily S iMAGEsET ExtraTorrentAT
67752c54a6bc34220f134e229065fb637b619b9d	750931410	1	咆啸之肤.Barkskins.S01E07.中英字幕.WEB.720P-人人影视.mp4
67d8ce2d20a8873778a85224b147cd64a74768c5	1349746130	137	KDG028MP4
6713f7dae790db3f719164162ad7bb05f1df8dd3	74669788	1	7020827.ts
67e132933b02359469cab452b1bac0b3ce21b8ea	2673144944	1	Presunto secuestro (Gone) (2020).mkv
68902f718a44407e2baea3153c2d9da42c63850a	506809718	4	[ www.Torrenting.com ] - The_Wrong_Mans.1x06.Running_Mans.720p_HDTV_x264-FoV
68ddf35b0f537b681b504ee1fa6d92539ea1931e	361181579	1	829-8.zip
680ccc07c61a615e86b990e72eed9b3cf9e34e60	814300982	1	WWE.Photo.Shoot!.S02E03.Natalya.720p.WEB.h264-WD.mp4
68968163c244b17482e8c1bca44f02b8d30229e6	1508422906	3	RCT-886
69ab2a23fea795217b6aba0ade4029734f6ff70c	405619431	1	[SweetSub] Great Pretender - 23 [1080P][AVC 8bit][CHS].mp4
69c2b88771e502562528afacad845a991a919b10	2012757847	2	BurningAngel.20.11.12.Joanna.Angel.Backseat.Driving.School.XXX.1080p.MP4-WRB[XvX]
69d3175dd7d9addb8adff117b371594a344ab113	113033920	16	Place Vendome - Streets of Fire (2009)
6955b374042c0a0f99e5ada3943f4aaf562fa01b	612734132	14	Do.Do.Sol.Sol.La.La.Sol.S01E16.KOREAN.WEBRip.x264-ION10
694da3ac4ceb8849a09028498678faf030d89026	1046538763	1	Rogue.S03E18.720p.HDTV.x264-KILLERS[eztv].mkv
69bd41855b139a130c393b5006e06db295a2a938	7337508546	30	Forensic Heroes II - 法 证 先 锋 II
6937cd5ab3fda50499050d0238b6d1d36038f96d	7790819	5	GRIP.Combat.Digital.Deluxe.Edition-CODEX
69763486841d15d7f1e7dd95649555b994d1f587	3125146299	2	NGCK.북한을 가다-홀리데이 인 평양 .HDTV.720p.x264-NoName
6a2730b5a366b62f4e8be65eccead493b773a618	29308174	1	(成年コミック) [ふじたじゅん] 桃色F型ロケット.zip
6a0f9d53a87ebfd595d1a3496a8d28ed630b145a	5356925	4	Adobe Acrobat and Pdf for Architecture, Engineering and Construction {H33T}{projectmyskills}
6a7524435c4cae801e677f7f6f737be43aa66864	460521	1	[El septimo circulo 71] Henderson, Donald - Adios al crimen [58305] (r1.0).epub
6adb9ee8d910a1ea1766b9ad7b18b6a76ae68d68	243941465	1	DxO PhotoLab 2.3.1 Build 24039 Rus Repack.zip
6ad6cbcfbe46f6130ff7cce428fac4ec5f30ce69	7391194521	1	[ThZu.Cc]ipx-187
6af818a9d644046de9b9972d73c3690e7debc88e	437643948	1	Handsome Guy Fucks Hot Blondie.mp4
6b35a978d6a1feeb2e833f73d6b11b4be0d17705	580253137	3	MomKnowsBest.18.06.01.Britney.Amber.And.Lily.Moon.The.MILF-In-Law.XXX.1080p.MP4-KTR[rarbg]
6b4d24daae4307be0f0f2f6cae2c34417e94730b	372181359	5	人间水密桃 被小哥双飞，口交深喉，扶着鸡巴上位抽插，被各种体位蹂躏爆草
6b0785698901ad8bfcf6769403e94834656f3117	407159104	140	Biographies & Memoirs
6bba9a6de4b09c709caf799f15d25ab26af43e20	1465380864	1	Fulenincs nyúl.avi
6badd2a6645aeb4da6dc5f88f4c6ae6572367e69	1242869009	31	JNC1342c
6b8b028419017656dbbfc5c4d2635dd1036d787b	525113042	2	The Walking Dead S06E13 HDTV 1080p H264 [StB]
6b8941be23c487b876ee5792b5263d0da91add82	247810424	3	《新年贺岁档》百万粉丝推特网红刘玥国产剧情AV回家的诱惑和闺蜜一起3P大战国语对白
6b1e97ec3946e34d231ed89ca33047fa95a4a19d	565717298	26	bd2010-11-17-LB-9018_Binghamton_NY-romeo
6b1ffe0fae17cc03db24a2c0a43aad9c1c0560d2	170457183	6	VideoHive - Gear - 3D Logo
6bff3bece5026f3f5ba2b6d3b4a617c04ae279d6	42699041	1	Thorgal 16 - Arachnea.cbz
6cc596c0ae74f04d696f83dc63476a3ae5aeee02	56049904	1	[milkholic]ネトラレ卒業旅行 [中国翻訳].zip
6cab714f2675389e7ae32f470f20a200d4532305	7530489	1	Ricky Martin feat. Farruko - Perdóname (Urban Version) (2016) (www.DESCARGASMIX.com).mp3
6c36f5ba39dc046b3895d5cb0dc1190732f0db21	87784541	1	Lara.CumKitten.Zur.Strafe.gibts.ne.Wixxkontrolle.Ich.bestimme.wann.er.spritzen.darf.mdh.german.handjob.cumshot.mp4
6cdbdfb64c54853da731036be6b8b8d2844e1051	52384591	1	- Artist - Tohiro Konno.zip
6c502d073650be7ff8c5d8c3efa62eba2977b86c	3271965595	3	AllOver30.18.09.12.Malta.Mature.Pleasure.XXX.2160p.MP4-KTR[rarbg]
6c05f89928899612ae7c41e960d05dcef4dbd672	184315368	1	[LC]Kaibutsu_Oujo_06[XViD][A5AFB928].avi
6c7c0472986e64d2326f678a5148fe1a373572c7	4398944857	7	The_Simpsons_s30_WEB-DL_720p
6c46d0c9a10e8e84a48c4b71f7461a4cd518ecd8	7963917	5	70 Very Useful Excel Templates
6d7fb078e2f39cf316781b9e1a5096ed0d3f9902	827607810	1	HotMilfClub - Lea Lexis - Hot MILF Lee_720p.mp4
6d44683784d2198da778539bc291f9ae4aac1d52	1033379507	3	Life In A Year (2020) [720p] [WEBRip] [YTS.MX]
6d9c43c0d7078a2a3ece58cec27773c6b82a0e53	5311924	3	[2022.DEV]韩国约炮经历.mp4
6d5b4f896ce2f68d060bc788fcfe020b22034e54	93156356	12	www.Torrenting.org - WifeysWorld 18 08 03 Facial Tsunami XXX XviD-iPT Team
6d1a8c6d742b4546c352330ca383b5f4162c046d	984433004	1	024_3xplanet_mesubuta_150527_954_01.wmv
6d610fcf3c432ebc3b667e3200e9f3509684f27f	5741896	30	1125歐美15支
6dc884e9e2c7c87425dc0ab048b2e8e2c1f7dc9e	98171105	19	DJ Quik - Safe & Sound
6da1cb809e1a754c164bfe0d9b5021b9199bdcaa	636120926	2	WildOnCam.20.11.26.Tristan.Summers.Hardcore.XXX.720p.HEVC.x265.PRT
6d3ef7701502134d5028a7137898f05cb2af04e7	1467701248	1	Moj.ljubimyj.prizrak.SATRip.avi
6d77fd1dacc5d5b0ec6502e3a4b0ccf000cbccec	1797690211	7	FSDSS-130@18P2P.COM
6d9ee573e25c83f47c50d84ef4888c59d50403ec	1467303936	1	Begi.avi
6df96d53811ab45a034370ccd4e5064c8bc4ecfe	340413219	12	빈란드 사가
6e7cb2acbafc61717d079fb6544963931bbd7f81	735021218	4	[WILU]Magnezja[wilu75]
6e5db2d544c3c9fc86e75a593229b257ed909585	829672691	30	190728惠奈酱超甜美黑丝衣自慰射自己嘴里-20
6ea0007bf0113c2cfadc7a6073c586350695cd9c	28113807	2	Краснознаменный Балтийский флот в битве за Ленинград 1941-1944 (ВМВИВД) - 1973
6e065614979ed82083ba31279d1bbafc0b83d6a2	1477945189	30	13.mifd061
6e11e8e464729190ed9d205abfc645b1f98082b3	2550717712	3	人类清除计划4.The.First.Purge.2018.1080p.WEB-DL.DD5.1.H264-中英双字-MP4BA
6e4afe1cb2a3e3014347577970167492552d43bd	322549434	1	Forgotten (1933) Pre-Code Drama Lee Kohlmar, June Clyde, William Collier Jr..mp4
6e772d80fd6d4d4735f786a8c5d7d128e58acdc8	7962490	5	Delphi 7 - Enterprise - Serial
6ee057bbda7c91783612c56f83ff24b962f9d2dc	2899275	1	Źli papieże - Russell Chamberlin.pdf
6f3f138135c763a7bfc0ba02f58d3e4dc1a21515	4017763	1	Conway Twitty & Loretta Lynn -- The One I Can't Live Without.mp3
6ff5fc484e28ae35889c1cf4ca148b5fa75f602e	438309980	1	[BANGBROS]Eliza Ibarra Needs a Big Black Cock [07.21.19][HD].mp4
6f571ebc1d3821f2a7a6c58905488822ff72ac76	7962898	5	Chris-PC RAM Booster - 5 06 18 incl Patch
6f9bf5b469f8c81f355ea7e441251c57df05dd90	167931011	1	Killergram - Chelsey Lanette - Private College Girls (Scene 01) NEW (Apr 29, 2015) NEW.mp4
6fb2b9a542cf74ca9b06921682ba35ed61b335a4	58353136	1	(成年コミック) [翻田亜流] 桃色少女.zip
6fccf29ae82166bbdf3bbabcc30a2bd6038c32ba	3760	2	ImagineFX_201812
6f10be02accd333dd3402a0916c29f63892f0be9	55861917	17	言の葉の庭 Scan
70c1b8e5390d3740534b53313be8ef0ee99e084b	835447302	2	The.Beast.2020.ITALIAN.720p.NF.WEBRip.800MB.x264-GalaxyRG[TGx]
7081fc93a31fcbe9e943afdcf401f0c3fe59885b	1439615332	17	SNWD-027
70d8a225a7a22128b9054ccde0319a959c77a667	435672149	79	musiq
7078755e9e246b7b43bfeed157b849566250a18d	540520126	58	FTVGirls.com_20.09.08.Cecilia.Freedom.To.Spread.XXX.IMAGESET-FuGLi[rarbg]
704d905773c002d5e268f55ee16a6d93a07038bc	41965830	1	(C85) [Kuma no Mori (Kumataro)] FLESH HOLE (Touhou Project) [English] [MrBubbles].zip
70476006e6690e20a8c4a2df086c5f1ce638b4ca	8938456167	36	Autodesk.3ds.Max.Techniques.Collections
700a49b239959eb880e0b0cbbe8ff472448e2ceb	3777500	1	James Donovan - Szpiedzy na moście.rar
70131636f360129e3fada18d6f821ed799a8dafc	12253544	22	[Akuukan (Aqu)] Yume dattsuttendaro!!! (THE IDOLM@STER CINDERELLA GIRLS) [Digital]
71e15d5872703640c0ac213531a15ff85bb07817	226710070	1	[KTXP][Kimi_to_Boku_no_Saigo_no_Senjou_Arui_wa_Sekai_ga_Hajimaru_Seisen][07][GB][720p].mp4
713460b55cf086c526ff2acd8d01a87516615c32	430360188	1	www.4MovieRulz.pe - Honeymoon (2020) Telugu S-01 Ep-[01-06] HDRip x264 MP3 400MB.mkv
717facb671649e13da0d9abde489d3cee20b133d	17174733	2	OO BrowserPrivacy 14.17 Build 637 [x86 x64] incl Patch
718d8f7f9d226ed697fea0cb15d1c2c063a9a96b	1987956049	5	I.Can.See.Your.Voice.US.S01E08.1080p.WEB.h264-KOGi[rarbg]
716652541a9e621fbae0bb9bfffe154d38047d95	3256968939	3	Industry.S01E04.1080p.WEB.H264-CAKES[TGx]
7109237111eb95b0a270473227ac9a90f4787caf	8417152970	1	The.Giver.2014.BDRip.US.720p.D.NNM.mkv
713a3af634da1081c84ac8160c8e7dd0b4a232be	2586225	1	Dr. Zhi Gang Sha - Divine Healing Hands.rar
71c029c4683055cf72793f0b3a967641158e0bc0	185080669	11	2020 - Eric Hilton - Infinite Everywhere
71e1352efa0c5af3355fd0ba88f7645618abcac6	110219474	7	www.Torrenting.com - Voltron.Legendary.Defender.S05E01.480p.x264-mSD
71b751f711056fc025b3bca317bf6a4506f5aaf0	7962778	5	WonderFox DVD Ripper Pro 15.0 incl Keygen
71b0d4079e5ece99b8624b5676ed187657a1a9f4	51721726	63	Savita Bhabhi - Indian Comic - Complete Rip
728668e29623af25d4e2c23e5cca06d660e3fa08	1235890455	6	MKD-S77
7215a31c29fd7230429fd4a9cbe4f2b67e5dac8a	73379778	172	[Anthology(アンソロジー)]Ero Shota 4 Bitch Boys(えろ☆しょた4 ビッチぼーいず)
7289672145bb27179e1629413eaa1c691ada55b2	9449959	1	Economics - Essential Technical Analysis.pdf
739561a2cf782c80d12d5585db312383ef41b314	441592025	19	VA - Damian Lazarus - Sci-Fi-Lo-Fi Vol. 2 (2008) [FLAC]
73cd4171b0b3884a65db1afd3c5b1a36c64335ab	611762136	26	1125-13
73090d04639fa6ebf5c24da5bfa326233d808fb5	1389493824	19	6 Doctor Who BBC Audio Stories
73ee5329f12d8e31882da2e40fb103b89bff84b7	1929306703	1	DevilsFilm.19.02.10.Natalia.Queen.XXX.1080p.MP4-KTR[N1C]
73aea34ce6266d93cc96256c381b2b7883e4e1ce	1462847688	3	The.Iron.Lady.2011.DVDRip.XviD-SPARKS
7381b9b13f609366afe4275156cf0fb674fce3cf	351098916	2	Dr.Phil.2019.01.24.HDTV.x264-W4F[ettv]
732799d8d8ad3387d297a7905abc0bf3ee6d70d3	2550598123	1	ImmoralLive.16.07.14.Reena.Sky.XXX.1080p.MP4-KTR
74968e9e3a83c2599061f460d43fa81fc819970a	1378647301	1	ncis.los.angeles.s12e03.720p.web.h264-ggwp[eztv.re].mkv
7457a69ab826e7c2360fdad4a73d1be8e325542c	369927852	30	Cafe Lounge Beach Chillers 2015 Vol 1 Delicious Beach Sunset Lounge and Chill Out (2015)
74999ff081fce11f0a1f1efc6700dc6838ef5237	1448705484	3	Enigma - MCMXC a.D. (The Complete Album) © 2003
7477199e2f8cef539a0e452bf8f9859d80576859	1273296624	1	Il Re di Napoli ~ Italian Hot Movie ~ [RRG]{Brego}
74c9390ae155f9fe3432f55e70ee2fe566d4cc77	7190497959	9	Vorona.(2018).WEB-DLRip.(AVC).Files-x
7464640328b5c2b4d8e4c57da4b979aae42fb3ab	1767935232	26	1126-15
756af28f6496c29fdfe0d7c4b0f9943b62bb3337	385534840	12	HJD_1562-最新价值688元汤上莱卡摄影师众筹视图版 爆乳纹身混血名模与摄影师激情互动-1127
7584fe4acd987bdeee204513ac51a1aa731ce89c	247554168	1	[FYSub][Pocket_Monsters_Sun&Moon][138][720P][GB].mp4
75a538d488260d81bf59fe3c166d85d9741b65bc	726780737	4	[Torrentfrancais.com]-le-grand-soir-french-dvdrip
7545fc99596302ec4e10409f88f7d16ef35d73ca	37393404	30	Beautiful And Amazing Anime Wallpapers Set - 3
7517f9f54a58aef7212c1d327a618aa974166ae7	23346680294	3	The.Organization.1971.1080p.BluRay.AVC.DTS-HD.MA.2.0-UNRELiABLE
7574dcf90dbc84078a820b792ac0306e53b276f2	2210209536	2	Harem.1986.DVDRip.XviD.AC3-CTSG
765125c3c1187350e9a5ca11f4891272adac9809	3872405976	11	[隐秘而伟大]Secretly.Greatly.2013.BluRay.720p.x264.AC3-CnSCG[韩语中字3.6G]
76662062459907b219f1fc24d34272a7a8faa379	261881918	10	TVBOXNOW ViuTV 瀛知有密
76117d85eeee706a0a8618a16d00ffea9f1fde91	324483015	1	[아이돌 드라마 공작단] 170627 [드라마 2화] 연습생인데 족발 먹고싶은 저, 구제불능인가요？.mp4
767cde30c38d15a1ff0f40faf850517394823796	1138753536	9	WANZ-225.沖田杏梨.生徒に自宅を乗っ取られた若妻女教師美人妻が奴隷ペットと化す3日間の凌辱劇沖田杏梨
765c92536859c768adce205c1be90f3fa6d638b8	1933471502	7	9-1-1.S03E02.Sink.or.Swim.720p.AMZN.WEB-DL.DDP5.1.H.264-NTb[TGx]
7600a9af544cee0295f5c12a6a82e8660ef0cbba	261712257	1	My Little Panties 4 Sage Evans.mp4
766d28176a52334affceb033dbbdb261f3740ddc	1435292538	4	AllOver30.20.10.30.Kitten.Latenight.Mature.Pleasure.XXX.1080p.MP4-WRB[rarbg]
774b67dc23bb1fda03ef177cb668b0a076d92901	399392187	14	Mountain Mocha Kilimanjaro - Mountain Mocha Kilimanjaro (ALAC)
772ed1e173369e256532ecf7f8274d8599c98012	1274084637	1	JAVHIT.Com _ XAM-044.mkv
779c15d6006edac0258a8afc15dddfc3bec3ab26	1103700118	8	www.Torrenting.org Blood Relatives S04E13 Youll Be The Death Of Me 720p WEB x264-
770a615ca330ed7b9fa649fd4ddf199f1c60a26a	358890407	2	Kathara DNA Activation - Bio Spiritual Healing Regenesis Program - Advance Level 1 - DVD 3
77a121d6bc04b7796e84a1bc18f17026dda92b6c	1540933382	3	Dragon.Ball.Z.Kai.S07E12.DUBBED.1080p.HDTV.x264-W4F[rarbg]
77631e725cc762d023461ec625e49271624dabc0	536910340	93	Pitiless Cici Rhodes Claire Adams
77fdd2b9cdfe175bcf388cc660bfd346a24f60d9	2860663702	1	mshfadessachad_1080.mp4
77c79dd974e90a61cefe276861d02fc9849788ed	230260408	1	Dimitri From Paris - Essential Mix - 19-03-2011.mp3
78f678fa920e51dbea2df9415883b1667d87a801	30411033320	37	Ein Fall fur Zwei 1-7
782ee0daff4919c65a27e5e707231f3f849f351a	3868923147	6	X Men Days of Future Past (2014) BRRiP 1080p x264 DD5.1 EN NL Subs
78ff3b7f4289941122bfe24a879305827a356870	2417875095	5	DP Dream Team
78e6b8cc087ed886db9e28e74f82150c99792177	7396325169	1	Костян-Флэшка.rar
78a5cb3e46f2c23e42723791ccec8cf4e25b6c9c	26803571	4	Scappo - Waystone A Long Way Down + Sure Bets (Sexyfur)
786230bf31089e4df41cfb092641cb304f35badd	5075487043	7	www.Torrenting.com - Wayne.S01E01.2160p.WEBRip.x264-TBS
78403434ca5119ec12c20d5f33f13b4f379c9af8	222701526	13	rave_Paulina_Taylor_Thunder_Opera_II
794f805a08fb4a1071d8c380a6b516b2909eff02	5574692511	3	hnd-907ch
794c0e8b5625836b284712b0172e9cd26b942b10	4445589286	7	The.Outpost.s03.WEBRip.x264.Rus.BaibaKo.tv
79ac47110abafedb1b716beeb6069dbaa6d2a041	890545740	1	3st0y.V1v0.1x01.Dmsec.avi
790314d6a02b9ca9aa03bb94e238bd99dc7be647	1483371521	3	WWE.Money.In.The.Bank.2010.XviD(www.mastitorrents.com)
793b8eca13123fd0305ea1162acfb45096348f6b	780153765	2	TeamSkeetExtras.20.06.16.Ariana.Aimes.First.Film.XXX.1080p.HEVC.x265.PRT
79eb8e27faeebd94ca11227774338b261c241bbc	246939710	10	TVBOXNOW ViuTV 樂齡不悶場
798f25ef66d1f3b0bbfa2864fc80af92141254e0	901450022	1	[情欲小镇（荡妇）].The.Slut.2011.SUBBED.D9.10bit.MiniSD-TLF.mkv
7a8210d08c18b6a72381bf2c0a90a8d7e0d1bb55	2350222511	3	Airlift.2016.DVDRip.Rus.Original.ICG
7a822fabb38c37a536974f4ba6465e75cbaeb568	2839126	1	Harry Harrison - Na planecie niesmacznej przyjemności.rar
7af48383245e60e6acba454c0d1a310dec98d66b	746244706	7	Czarny Czwartek - Janek Wisniewski Padl (2011) [DVDRip.XviD] [Film PL] [D.T.m1125]
7abc5ad683cef1b2891d0a55bca16e47ee088b75	17174688	2	art of rally (v23_09_2020_7Build 5582977, MULTi12)
7abcaabd2f40d22a31a8d2e3be5bc333460e6d7b	717475378	1	Neverojatno interesnye istorii_27.11.20. SATRip.avi
7adab64348446f70820825148ec751a90f706c89	886382529	4	【村花论坛-www.cun.cool】-834[PartyCat][轰趴猫套图][PDL潘多拉] 2018.11.15 No.28 铂金版下载[50P848M]
7ad24a4b4486aa20a463de7cbf6f3d026d5e1697	4886300406	3	ExploitedCollegeGirls.20.07.16.Delilah.Day.And.Maddy.May.Part.1.BTS.XXX.1080p.MP4-KTR
7aa5d98521e616b8ecf4a88966f59b244edc09a0	294291638	1	(同人CG集) [あまがみ堂] ぼくの里穂ママが 教えてくれるキモチいいこと.zip
7ac55026f327642627df7b93eb2343863c5a14b4	1693130752	3	NCIS. Los Angeles .S12. WEBDLRip.TVShows
7a17f197663de9fdb39b0b8208bb5a6fe5e6ebfc	1502739994	157	MP3-daily-2020-February-06-Disco
7b30509801ca31756aea91a44f3593d28f44fd05	743531499	6	www.Scenetime.com - Naked and Afraid S11E04 720p HEVC x265-MeGusta
7b3b55d8f6bd85b28c4cfda3f44446b338e2ca22	1248108911	30	05.My Sexy Little Sister 2
7b7195424329259a6a53432aa94c3cfca2ab7a23	913297521	1	Confidential Assignment 2017 720p Esub BluRay Dual Audio Hindi Korean GOPISAHI.mkv
7bcb915fcc453714f35102cf40f09a6c39554034	2184159104	4	Innteracial.Wedding.Night.Cuckold.XXX.720p.WEBRiP.MP4-GUSH[rarbg]
7be52d625b31243c0128029d892903ccf8ca1f55	209013112	3	重口味纯纯妹子血腥啪啪鸡动肉欲作品《尸囚狱前篇高清剧场版》字幕佳作在这样的地方起邪念猛搞美女啊
7b9bfb66996bf2b6acccb25bacf6e9786eb1bb5e	8081433048	1	F-1.2016.19GPMexico.2ndPractice.ArenaHD.Stanst1080i.ts
7b089b3db66f538178398b3e0aeaf1b2abd5c25f	6018945073	46	The.Flash.2014.S02E01-23.WEB-DL.x264.AAC
7b12c2a64d4efdd8bd0126f52ea40dcfec73a3b0	119717193	1	Remote Desktop Manager Enterprise 2020.3.2.0 mac-torrent-download.net.zip
7bc4e3f7449535ee4527793648b6868115f68ffe	885849515	2	Berberian Sound Studio (2012) [720p] [BluRay] [YTS.MX]
7c4d97f3442bd46c7206ffc3a236f2bf2ce5d516	320585821	6	www.SceneTime.com - Saved by the Bell 2020 S01E09 XviD-AFG
7c84a6331fdd94cb93a982bfa2e836ec73923871	541248147	1	流浪女王.Vagrant.Queen.S01E06.中英字幕.WEBrip.720P-人人影视.mp4
7c57eb95099f0684e230a9621b17a76c84fb3c7e	1138229462	4	雷霆怒斬@18P2P@MIDD396
7c8cf095df25af3ad522861caf607c9bff6d8e88	178803859	13	экстрасенс Александр Литвин, интервью обо всём
7cdcc96f20adad343390e88c5574398332d0ee97	731197440	1	Pom Pom Girls.avi
7ce43b28d2bdc52054185a6e99f6148a26c997c5	17845956	2	Shakti_KP_ML
7cf253ddd754167c9bfd1e011a0f1406e53ac2e4	1751142400	2	Arya 2 (2009) - Untouched - CAM - [SDR]
7c9a7dc74660cd232b6ed1940b37eb615b2bb4ff	769173082	6	Little.Girls.And.Cream.Pies.XXX.DVDRip.x264-XCiTE
7d832c9748b40e29df828fb071d7c3dd7b968aa7	122868952	16	VIXX - VOODOO
7d74135fe4469267707baaef1e88e0107689c4ae	564520302	1	Ice.Road.Rescue.S05E07.Moonlight.Mayhem.XviD-AFG[eztv.re].avi
7dd09f703df7aefba27719137d0734cc015e42db	122601544	7	www.Torrenting.com - Apple.and.Onion.S01E09.XviD-AFG
7d0519b11c3b49bb61d3172146b3b34344f73ee1	221967530	4	Karen Kougar-Drill Baby Drill2008
7e1c4bb043702c498ecbf3360122eaec033e902f	1063361430	12	HJD_1688-91天堂系列豪华精品大片_健身教练和职业OL的3P游戏_完整版_全程字幕解说，两大美女玩得嗨爆，用道具调教到高潮后抢着吃鸡巴求操，轮流干也满足不了～-1130
7e74cf008ce08cc7f0871c678008042160ccb833	256918946	18	Александра Лисина - Игрок 8. Мертвая долина. Том второй (Алевтина Жарова)
7e5e9acfc17d76285f162feb0b2ccd5c373e823c	600531882	1	American.Housewife.S01E09.720p.HDTV.x264-AVS[eztv].mkv
7e1fe70e8a78c81952f497a2a7b873c6180c4546	44883542016	1	Kung Fu Panda 2008 Blu-Ray 1080P H264 TrueHD-MJJ@TTG
7e3c5a977b191d9959aaf978eb5ed37dc0b8e278	1574633868	2	www.TamilRockers.com - Bajrangi Bhaijaan (2015) Hindi DVDScr Eng Subtitle
7e8495182fe78b2968fbba3ad29eab217ec9c679	1351988455	136	MCSR076MP4
7eddf75e7b7b3c2f3f7f22108ca46ee8a69937c7	452032374	13	Duke Robillard - Duke's Blues (1994)
7e70dc6d9f1482d0fccaee0d2d312b7aaca94ed2	374609879	16	Lisa Stansfield - Marvellous & Mine (Natural Selection) (Japan)
7e87d42d0227fee800946094cd3513d955ab57fd	1467990016	1	Experiment 2016 HDRip.avi
7ff76530ba3c07208b8d31dd5483c875f5eb6410	7962612	5	Windows Server 2016 X64 Standard ESD en-US AUG 2020
7f4d980981829d6598d045f3e559206fa1b1541d	594199185	18	ZAY20112721
7f9db7934bc877cdbe9599067c43f76f16ab635f	7790918	5	Jazzpunk-HI2U
7fb6537a4e7aff445f110d0c5bee711a4be45d84	1216745666	1	ALSAngels 14 12 16 Bella Baby And Tess Lyndon Photoshoot XXX 1080p.wmv
7f4c1743562e12f3161e3ae81704e6e9d05870e3	1254449127	1	gardeners.world.s52e13.720p.hdtv-docere[eztv].mkv
80b6b2e4f7f3995404c9057b22066c1f7cc4f208	7961587	5	ReiBoot Pro 7.5.2 incl Keygen [CrackingPatching]
80a024c3b4b4ab4680fb243c1886407e4895e30d	398629934	35	Leonard Bernstein - The Joy of Christmas
80eeb5ad6b8b6d1d569782b9da743ef0b5deb50f	1122012619	4	The.Whalebone.Box.2020.WEBRip.XviD.MP3-XVID
80811a30ca6f1ac27e5e10954c4561e1852de021	734283776	1	A.Febre.2019.Pa.WEB-DLRip.7OOMB.avi
80c0267d1ebf14aac8128c725358c296b5ec3a63	7961325	5	Nitro Pro PDF Retail (x86 x64) v13.9.1.155 + Keygen
80bb925827674b6018d9dcaacfa3a477719a52c2	8164348	1	Escape from Paris A True Story of Love and Resistance in Wartime France.epub
80529993171b206b9bbdb74a58db2f4d5c5119cf	1177060073	159	Deva Premal
809aff942573bfbb5d522fdee20eeb698fa6b0f4	3060708134	1	DANDY-404.mp4
80d0e66c6be45e7ef12053bbae2bbb269ade08f8	181558420	1	Foot Fetish and Anal sex with Kate England PIR@TE
81d2237e3ce1800700650cc0f4749c9a2c46b210	267195987	1	老友记.Friends.S09E16.中英字幕.BDrip.AAC.720P.x264.mp4
81d915e290292c131a68fb6f3aa4c0ff03abc651	41823415649	12	Doom_2016
81a978b9ca9adb8bd84a00b94114f94bf2a82da3	732577519	2	Dam 999 (2011) Malayalam 1CD DVDRip x264 AAC ESub ~JMX~
81918fda31a4f308f1842e678f1877b75c7b31c3	1186534570	4	Say.Yes.to.the.Dress.S19E08.Whose.Side.Are.You.On.720p.WEB.h264-B2B[rarbg]
814affc8bc101baca4024de40bf2acac519369db	731385540	1	Mother.Load.Vol.5.[Zero.Tolerance].XxX
813323ec34b9be334c9d05d402fce82cb54421e7	168592256	1	Japanese uncensored bukkake
823c4116c78bfc022163cff22ed7ca9eb491a80d	734183424	1	Purely Physical.avi
821fd083e70e8eb78cc701f13748e460b04ea22b	7962228	5	PPSSPP Gold Windows emulator
82f3a927c3bc361a1a2423ddc525a8d2926ff945	250667760	1	Teen Amateur Girlfriend with a Good Figure Like Homemade Sex.avi
821a73818ca56de6220ee01c1b3dd196f38eb160	21894282	3	The Survival Medicine Handbook
82f5a8f697e31ba45bf777f9abb4f83827265781	2836576734	5	A League Of Their Own - The Complete TV Series (CC)
82cc527b66c9180e59c951d5969a7dd5c738258e	1812489639	123	FAA239C
820f632c766abda3a3c38dfc954cae7a8cbce1e0	6601202532	1	The.Wolf.of.Wall.Street.2013.x264.BDRip.AVC.MediaClub.mkv
82496a116be6b043c4b91a7f8398fc2818d537ea	1845392361	6	69 Scenes - Superstars Of The 90s (Disc 1, Vivid)
83769515939199d5e3ace711caf5473b6ad76010	205030544	1	到了30岁还是处男，似乎会变成魔法师08集720P电影淘淘
83ca6f0ed4a712782326ac5f88d98fcae5a7ef11	750724761	2	Greys.Anatomy.S15E03.720p.PL.WEB-DL.H264-TVM4iN
83a8380d454437f5f6963b23dfce416e80872154	7964469	5	AUTODESK.MAYA.V2016.WIN64-ISO
837ebb5cf04c05616c570d9512308fda1ed6db96	571283167	12	paf2010-05-28.111686.fob.flac
83b777472b73e40503db6263bcab183c1c94a1cb	8971932541	9	Zeppelin Graphics | 82 Flyers + Facebook Covers Bundle CreativeMarket 362089
8358f8691e13315f1fdf763ca013a1e4d6b7d5e0	549716030	10	TVBOXNOW 汪汪十小福
8326fa32b56f3ad6ce0003d0c1e0858e6a2807f9	261630574	1	[ASW] Higurashi no Naku Koro ni Gou (Higurashi - When They Cry - GOU) - S01E09 [1080p HEVC].mkv
84498553611530fb3cb860411904ec54efe20c04	417830070	1	Strap-on SlaughterHouse - Bound, Fucked, and Milked.mp4
8466fbdb975dec0a80160c5056012028c4220408	7283198	2	IBM Workplace Services Express for Dummies
84876985e3402504fde4d493cda06826f77b5420	708502158	121	FC2-PPV-1140610
848d907c5351027b105ea22b7c40216670d92f2c	47067005	1	Grazia NL 2020 29.pdf
844438d6a66c07eb2b8e96f80473ab5c009b6b43	11159407441	24	Kimi Seisen
84252bccf204134cb03fe38b10e1baa36a548574	354213646	15	monumentiantichi02winc
840dd5408cb014b5351cacbc04bc44e270ae9d86	1342885229	53	VA - Toolroom Knights Ibiza 2014 (2014) MP3
8409d0703949781084fc5fe300e647b0be2b7b9a	217348166	1	12yo+9yo lolitagirl ( PTHC ) Color Climax Lolitas !!Novo ptsc - Young lolita compilation.mpg
8410c7e59c9994343c5bbffd1960d173a2e495e1	1146526886	2	WWE.NXT.2020.11.25.WWEN.720p.Lo.WEB.h264-HEEL[TGx]
85f3267407821737cf1ea5fcbafa172785457305	117515297	1	[Urase Shioji] Toshiue ISM.rar
8543157d8b5b4b85df5ba890766c0e8735edf179	18686372	1	b46e28fa5593d8b1526107449471c28a
85b98ca8774bf0a1bc33e6f5a872db9e5dc4387c	240283995	1	Rough Relationships.mp4
85f3c01f0b3ed6e0a8a67b16c570dd28008d6f94	567554886	1	Full.Frontal.With.Samantha.Bee.S04E07.720p.WEB.h264-TBS[eztv].mkv
8699f355092a6a926e421c63d1af2c726b6e9a47	317996982	24	謝金燕 - 54321(2007) [FLAC]
869acce137057a888d5bbdb6a878f6d73a17c85c	287964338	9	www.torrenting.com - Hackers of CypherCon S01E11 WEB H264-PHENOMENAL
86b64b8f9eb289d618333cf0105e44d913912473	7790661	5	Royal Envoy 3 Campaign for the Crown CE - Foxy Games - FULL Pre
8693be1d6b361efdfb564e9c089093ba2b886684	1289649597	1	BBC.Army.Behind.the.New.Frontlines.Series.1.2of3.The.New.Cold.War.720p.HDTV.x264.AAC.mp4[eztv].mp4
86577b8878672fec87e2af368030aa1dc55e8686	307861384	1	Armbian_20.11_Nanopim4_bionic_current_5.8.17.img.xz
86223eb47872bbe396eab8d2bb8bd6587e4872fa	7460974	6	Reset Windows Password 1.1.0.148 [4realtorrentz]
87511ef5f54ddd029e563d510b2f9fc996a0e262	1400032875	1	Zoom Meeting 2020-10-31 10-29-00.mp4
878a1b5e9c4febceff70d620837f38fe45b9d163	236986550	1	Jessie Andrews (Barely Legal 112).avi
87c3465bc21ba233dcf106f164c050e0d6139389	729508450	1	Expedition.X.S02E03.Terror.of.the.Bell.Witch.XviD-AFG[eztv.re].avi
8749d06d31177400df76e916bc49da3d9b7a119e	861233921	136	Marilyn Manson Discography
87c15abb1347c21705c035dfc4bba87e5b76fab3	1237844319	27	南@第一会所@sugarcookie.18.03.06.lilu.moon.have.a.insanely.intense.orgasm
876dcbf21375ad6890218b16bf7380f7807fdbf2	7590552239	1	First Light (2018) BDRip 1080p [Ukr_Eng] [Hurtom].mkv
8865ac2f867baece11a6ebab0b75699adf8becab	914264786	2	(Video2Brain) Scribus
8843a21fca25e02ba219bf7213ec056af04f7abb	2129127544	4	From [ WWW.TORRENTING.ME ] - Fleabag.S01E02.MULTi.1080p.WEBRip.x264-BRiNK
89a13dcb731de8bdbf9937ff737d3f828525e600	746488313	83	Clara Schumann - Piano Works
89077723e6c353a06c68aa23406ab183fa52b430	5039649864	4	DickDrainers.20.08.22.Selena.Blaze.XXX.1080p.MP4-FETiSH[rarbg]
89df06e6bce3ebfa3610f47a26f897580841ef70	7962741	5	AutoCAD 2008 x32+x64 (CRACK ONLY)
8915c85d7c09b82b0ae73852dcc627a28d591687	1513741746	4	Paranormal.Activity.The.Ghost.Dimension.2015.BRRip.XviD.AC3-iFT
892e889156a63694b6e595150c9e2a7fbb7b1487	3437777995	3	RodneyMoore.18.03.29.Ginger.Snaps.Cookies.And.Creme.XXX.1080p.MP4-KTR[rarbg]
89fdc6cfd2d2beaea00bc0fbe10a9fa34c5aa58c	687106439	12	驢仔堂夏天胖哥哥啪極品高顏值黑絲女神
89b2cc6ce23b9a0c1286994b5e95cc3d9af6e89a	3892349	18	[Mugen Mountain] (Ultrabuster) SHT sentai no Hna hiroin wa tonikaku bitchi de SEX ga shitai
89ce88391d7e36a33f2c3afbcea3bf64036b4ca2	637150624	1	AnalTeenAngels.-.Little.Rita
89563800e27aed548cfdb11203b81f4a56f912f2	1574223060	1	Svadba.moey.byivshey.2017.HDRip.ELEKTRI4KA.UNIONGANG.avi
89233e5af4cca2825fba711b57410b67013277f8	2211339262	1	Mark.Kermodes.Secrets.of.Cinema.S02E02.INTERNAL.720p.WEB.h264-WEBTUBE[eztv].mkv
892e7e1ff14478b8e75c8137801631fcb62e59fe	12342526	1	No White Guilt - Inspirational Speech.mp4
8ad513b3fb93df2342ffd6c1454f873e9c21180b	1095829280	2	German Soldiers Mod Fields of Honor
8a1149690056e6a17682ddc7479b0e23bfb50f10	12115311	1	Czas mroku - Anthony McCarten.7z
8ab8109cd9762b66a0d82e607bde72ebbb7e151f	1236638508	149	DV1596C
8a6736e41a2ab768bf540c897c0ca375a71a232e	8494368842	10	Prototype Dilogy
8a445c4cfe1986930f5975874c7c40de2800bb3f	506121688	1	First.Ladies.S01E05.Hillary.Rodham.Clinton.XviD-AFG[eztv.re].avi
8acb11cea23491543d401462dbb0aacc76ee904e	289721038	5	[ www.torrenting.com ] - Suits.S05E15.HDTV.x264-KILLERS
8aedc2496a02aa8543d8a5163aececc8673a996e	776258343	10	Ikebukuro West Gate Park RUS
8a97aa536eb5fd69729aaa58fb5c95e2fb119176	586721358	1	Sek.ter.08.02.2013.avi
8a7c48047107bcb1d6d0e4d94d34d6d43be61981	234990445	1	(ゲームCG) [ティンカーベル] 淑女の艶事 ～人妻・未亡人の濡れた唇、身体の疼き～.zip
8a5999baa8afd343ce48e0aee12a4f0e53b42894	218352765	44	Darbuka
8ae8bbcc8e972502370ab94388f09be64acfa5cf	1494873300	1	Талли (2018) WEB-DLRip-AVC.mkv
8b7901fa3f3c793f0f1314b3c2be69012c334d0b	372697423	4	BTJ
8badfb5aa993cdf0865b2712f386fc4ad4cdcc6f	257460565	16	VA - Mississippi Blues (film music 1982 Oxford Miss.)(goingdownsouth)[FLAC][h33t]
8be853b819043f68cd18a7fa5d96d1c6f511217f	2168545452	1	[FSET-694] ～学んだ知識と技術が貴方を優れた看護師へと導いてくれる～患者さんの心のケアと性ケアも行う看護学校.mp4
8b669fa558978f521650736f6d264b98d8b597e4	161604698	1	Mistress Lola Ruin - Your first ruining720.mp4
8be853250c94d56f506a9c2c0c324a42f7d90cf3	2377980044	1	Skolnaya.Lubov.1976.WEBRip.1080p.AVC.BwTorrents.mkv
8b08d8ec863e829636162b4dc1c9fbc5488dc2f4	7963555	5	JoyToKey 6.5.1 Beta DC 28.10.20 incl key [CrackingPatching]
8cb84be3c4058a2fe3e72bc06880aa5cdd91b848	1529791425	2	Superintelligence.2020.HDRip.XviD.AC3-EVO
8c1407c26df052b0486d079a5278b917fd5acf68	200624504	3	摄影大师FYNC约拍高颜值蛮腰翘臀女模特亭亭大姨妈期间也用水晶棒插B搞出好多血自揉阴蒂都高潮了
8c14fe259fb2bfa25ccb4a0b20854387d778ea85	7039013033	1	Antropophagus
8c8a42824c3c849ce15ca115b97bfe84ae73c3b6	158101249	14	VA-Jazz Piano History (CD 18 PROPER) (2006)-JKoop
8cc2568a4550b2d0ceab450af05824390ae3b5c1	843594726	1	【斌少字幕組】【中文字幕】被男友父親強上的彼女 海咲なみ.mp4
8c0b9eba895675b583f24ae9a91f81dfcf7005fd	3555086359	2	人工少女３
8dfc53ef94bce76888cbb4415c61e8f96700fa0f	9638345	4	Internet Download Manager (IDM) 6.30 Build 7 Full Crack
8d1d1496b4603dd8e41483f58ee7d8779a3a543a	1024704035	57	[H-Game] [Table game] [Ace] エルフのくせになまいきだ。
8d9da8405afd9c6167ca6bf11f3dc092b54d4f4c	814500869	3	Viper GTS [v2][480p HEVC jpn+eng audio][unc][h.ero]
8d23c217a070ec9a4e03963eb71599d1f7df6475	1970780350	8	Kronika świąteczna Część druga (2020)-h.a
8d0788c6763ca412e82e28534046cc66b61b6687	280105925	37	Wheeland Brothers (2012-2016)
8d80f8b6cb511f839b4cbf7e9207b8e6de95cf8a	4404064362	8	National Geographic - Journey To The Planets (2010) PDTV
8d3404f675c7f517612f1434405fc565232ba3a9	116169603	13	Polkadot Cadaver-2013-Last Call In Jonestown
8d1ad890f4b6e7a3f29412b3f6f0fc1ea2221aed	1650618920	269	WP-8781 Princess Donna Dolore, Bobbi Starr and Gia DiMarco
8e39a87acf57c0b13bf866c22f98a29c473fd81b	1452442145	4	WANZ-268
8eb3db7d1f635eec5b5b107a66a06ec7d9c36e23	160561943	65	2020.11.25_MPLStudios.com_Serafina_Postcard-from-Rethymno
8e7aa1bfb156c251ae213d6d8d988c58b8e82e3f	566501455	1	Evil.Talks-Chilling.Confessions.S01E01.720p.HDTV.x264-W4F[eztv].mkv
8eb3be598f5182343a92b7f9622f4050497e8f6f	1057496901	1	Gabbie.Carter.Women.s.Work.Deeper.26.11.2020.720p.VHQ.CENTURION.artporn.bigtits.threesome.3000kbps.mp4
8ec7b5d0a3367a17c64d7620304e48b65711999b	87702761	1	[ FreeCourseWeb.com ] Boat International US Edition - February 2020.zip
8fabec0545cfe6fab835fbca7b0721ea5cc4be13	319677487	1	Tonight's Girlfriend - Kayla Kayden { 19921 - 07.16.2015- NaughtyAmerica } NEW July 16, 2015
8f4c0d5e5262863c115ee2dadfb13bfe176da816	60057588	8	Grieg Peer Gynt Suites No. 1 and 2 (Karajan BPO)
8fffb7ad44ec531a2f460f65a94c355589122a3f	108831326	1	Amazing Ebony With Perfect Ass - Nadia Jay
8fb08808cb60f4a49511bbf1790260c2e1bdf743	98853213	1	avast! Pro AV + IS 5.0.507 ML (32-64 bit) + Patch [RH]
8fa0f2e26e9f863e2cac66a6c0c58f4b551a16a9	747633857	1	Ashley.Fires.First.IR.Anal.bigass.blowjob.arch.blonde.blowjob.interracial.black.milf.angel.mp4
8f94a748276ef94e3cd1ee30164242c5a6a41bcd	1414756697	11	VEC-422_CH_SD
8fd354373c62e04dbd73f3484761dec1fa8d88f2	2301092798	4	Defloration.20.11.26.Sofia.Dolgovyaz.XXX.1080p.MP4-WRB[rarbg]
90f5743f63053b7235b824bd83165ecf846f370b	499904536	2	[ OxTorrent.cc ] Black.Narcissus.S01E01.FASTSUB.VOSTFR.HDTV.Xvid-EXTREME
9028a9a9e8557497c3949dd31fc6233ed7594f1a	110922575	12	Alba Molina - Alba Molina canta a Lole y Manuel (2016) (www.DESCARGASMIX.com)
901746427f55731f57413156ba7c50aeadad081b	116354157	1	Eminem - Phenomenal.mp4
90e1fc433600df93d061c7970c182635168ec84e	2835432556	7	Two Point Hospital [Other s]
901fd6232806adc3e57ffe6a55026ab42301ad6c	238418520	1	FM - Mar 04, 2015 - Ingrid Mouth (37570).md.mp4
904d5e2136f6d768353c8a54f8ea8907bd336d77	1266560778	3	FullyClothedPissing.16.04.24.Nathaly.Cherie.Blonde.Nathaly.Returns.The.Favor.XXX.1080p.MP4-KTR[rarbg]
9036c5a2c7320a33aac98de0bcd18f8bb5ba707a	552506785	2	UpHerAsshole.20.03.12.Nikole.Nash.XXX.720p.HEVC.x265.PRT
9079730c7a7ebb510f1d452557268fe21cc6afa5	848508344	1	Lesbian Crime Diaries XXX DVDRip NEW (2013).mp4
90e3a13b08b32eb14cb7f2597e99383d2ce0c5b1	1738817896	1	BABIL - Η ΕΠΙΛΟΓΗ - DVD 6.avi
9055c287b2652682f7bf3456b789286218509cbc	1254093012	42	ไทย1
90770cb4222bacf162797221e2ce9972ea02acd2	535042663	4	Czech.Casting-Vanda.3495-DonBass
904279ce8d15a7bfbb0e30d1e2da3aa73b3cfcd9	1314239236	198	MIAE318C
90102498133e0dca4fee05e7efc0882c9193f4e3	1758501968	1	黄金夢想曲 [07th Expansion] Ougon Musou Kyoku † CROSS Expansion.rar
90ec1d112519e75f97f942a56ac97361cf9c12e9	15325690774	7	Black Mesa
90d1951b40dc944d17d8073e2010d91bb344a9f5	4863146045	1	IPZ-739.mp4
91e44b97cf87541d2f61e3bcdd3185026716a201	732092416	1	Next.Friday.Night
91588887059c86081a7d888e8260ab00fac06e29	5488260299	3	[Karibu] John Wick 3 2019 1080p x264 Dubbing PL
9167fec6243914f49d3faed68ef483190a38743b	232855881	3	devicebondage 2009-04-1 Tia Ling-Matt Williams (6500)
914651ac71d874e8a79d50848acab40158ecad72	17670883669	7	DayZ
911995ad2f72de2ea2dd15445fb1b1c4f4c53476	7961595	5	Ashampoo Burning Studio - 21 6 1 63 incl Patch
919b0249f4c866987222b9efb93540e35485bab6	762782909	17	3
917013a346e2a1e5cb2260af64efee1ffe9c5fd5	394255586	12	HJD_1572-最新流出推特红人骚女留学生刘玥VIP版COS小护士给病人口活戴着眼镜吸舔撸骚浪样让人受不了-1127
910300a9660a3ad17e086df96123b6991bdffad6	4517598365	3	Stardust.2020.1080p.WEB-DL.DD5.1.H.264-EVO[TGx]
926b8a51db44cd6f0e35b2f99f8c053d4eb74602	464295684	1	Kamila.wmv
9275ffdd7bdbeaeb62da774693037d70a74ede0f	2347511271	1	Tory Lane And Her Tramps.mp4
92ca1704190ea69b688da37330833ffddee6e84b	17174698	2	Revo Uninstaller Pro 4.3.3 - Setup + LicenseStarCrack
924b4a750c5b119779e18731bdbd0afec558a55a	4517265408	50	vts-01-1_20200519_1010
92562e4a0c0a09b67be503488cef230bc083f897	7790977	5	No Straight Roads (MULTi13) - [DODI Repack]
92f1c72875a7dea350ed8b54c597b5c2dd56f4de	1029213949	30	Metallica & The San Francisco Symphony - S&M2 (2020) {2CD}[FLAC]
936a75c4ffd4755890d9034532c162b105564b0d	119518052	3	PutaLocura.20.09.08.Qie.XXX.SD.MP4-KLEENEX
93827d1d93596790950f66e5dbe50750920a1c8c	7038277386	75	The.Prophecy.IV.Uprising.2005.1080p.BluRay.x264-MOOVEE
932ff468c64a735d8b6169e2296a89ee591d3390	1496128380	4	KOREA 2012 KORFILM XivD-Aiden0
9379da3c29b45c47dda0829a00fb1a5b415ca7ac	1518276283	4	Agatha.And.The.Midnight.Murders.2020.1080p.BluRay.x265-RARBG
935f9921b99d193cda126731a7a73954798535b9	7963814	5	Kodi 17.3 2017 Final
9327875f06a2711118d454056714c11c2a2343c5	1856328939	1	btas_lauren_phillips_vl120117_720p_8000.mp4
931dcba79aff5b0109baa6b362aa7f745cdcf4dc	932764265	183	私房片精选国产自拍合集[20200515]
939a1e0243a8a44b98462d1a1da52c84a149b1fe	2840380	1	9c49bad5522544210aed3a1f60c16b0f
9416e9c3254291a9bd6e93cb753fe0ffda7afd09	3947216171	26	HUNTA-874
94d9f55e5c1e00f5f466dc2bd4fde9a258139147	1006518978	11	04 乱世淫魔【一代淫棍】双飞豪乳制服姐妹花 女友带豪乳闺蜜双飞伺候男友 无套轮操两个粉穴小骚逼 齐人之福
9412ac3834babee06496117b6fc75fd8e6c08c49	311027014	1	Kali Roses.mp4
947eac135f1027e4ec87e5edb3d3220f9b63634b	733972480	1	Blood And Bone ITA.avi
94fa72d9be46686d1e6e99ae87cb54e82e095b53	341943840	11	Xtasy - 2014 - Revolution (FLAC)
94f50652b10d255ddafa4372b88e44fb434ecbc2	602094688	1	Allison Moore , Jerry in My Girlfriend's Busty Friend.mp4
9514f97d3250611a285bcb145f409f8c81eea549	17174679	2	Test.Drive.Unlimited.2.Repack-R.G.Mechanics
958f237a249edd1998684d73a1ff24253c2ae5c7	243898665	1	TuckerCarlsonTonight.20201126.768x432.mp4
96d5bbd288911ea189d0e6697ab6d646133cc117	48447502	1	[ FreeCourseWeb.com ] Simply Sewing - Issue 62, 2019.zip
96544a87ded571bf272aa30580f8458e1e621d32	1600868199	2	www.MovCr.tv - Avengers Endgame (2019)[720p - BDRip -Original Auds [Hindi + Eng] - x264 - 1.5GB - ESubs]
96be6874349179a521ea3fdc2ee28a51dcffa34b	454481378	1	ThirdWorldxxx-harukayabuki1_1_1280.wmv
96fd657e0813f7dbcd8cec184f89d4b61dc0d256	7520309175	7	[thz.la]118abp00322hhb
96ed558a1c009a1f4a005e2346a81ac5d8925ad1	3325546784	1	대립군 Warriors.Of.The.Dawn.2017.HDRip.720p.H255.AC3-STY.mp4
96e2b2bc5adbdb595e24535296396012336885d4	4293399063	1	Mad Max Estrada da Furia HDrip 720p
970970b0ec2830ad5494201df0b0d6f40195231a	1335385857	1	Wildfire.S03E13.720p.HDTV.x264-aAF[eztv].mkv
97492f9e366bdd2860d8621030935b01f27d3e7d	173510392	15	1914 Alter Bridge The Last Hero 2016 320
97c9a9250b8dcb275538b72c6ff7c3f6b803487e	1055724016	13	To Catch A Ninja Ver.1.08
9738356cd91c59b049657a3bb9427dee386d1fb0	660534144	1	The Spanish Princess - Temporada 2 [HDTV][Cap.202].avi
974d0ba7c5e28a390c8b64c892c76bc2ea35bcc9	3642685503	2	The.Walking.Dead.World.Beyond.S01E09E10.1080p.ColdFilm
97a83035163887cfd014d053b76364dce75e69e2	49099497258	53	Splinter Cell - Collection
987474e2b912840edaa809e8d838876b6dbe733b	995521361	4	TheyDrunk.14.09.09.There.Is.Not.Enough.Of.One.Bottle.XXX.720p.MP4.oRo
981353e6a461b41cb4ea92865ee1696bf790194a	2573408	1	TrueCrypt-7.2.exe.enc
9827c76debcd5cc15dd4f1a635681b4ce82dd066	732630440	3	lameizi@草榴社区@肉棒有點大插屁眼不是很順利 喜歡肛交的女人~大滝明日香
9842fdfa7198e1191336336e4fd18d66b112d66a	1396211251	4	NS20190322_해외드라마_넷플릭스_OA_시즌2_E02
98f3c85b7cbd426fd2e9fd16135dea9ffa849175	212882163	6	HGC_1428-新人Dr哥最新精品大片第八部_双飞黑丝高跟女神“关之琳”第二弹_1123
98c94d8cb71b3d4b25689e17571f5e024809718e	1461984969	8	Poseidon
98617836c6b80456a6d0fe5c4f5bca38e2b629a1	7789731	5	GUILTY GEAR Xrd REV 2-CODEX
99f5adc408bb8828c8553ff3bbd63d453e51ec34	143441468	3	PutaLocura.20.09.16.Atenea.Dior.XXX.SD.MP4-KLEENEX
99da5a2f48d9ead5625b84ad0c76b739b5db0f43	475129218	6	olo@SIS001@CastingCouch-X - Violet Starr
99524a215db46586f3c3861fb4073f8546857367	637760164	1	Tangled Before Ever After (2017) [Worldfree4u.link] 720p HDRip x264 [Dual Audio] [Hindi DD 2.0 + English DD 2.0].mkv
99ac125fc8afd9de280b0994aa1444d906c92e69	1811458079	1	BEB-116.wmv
99ae4705f3cb7f9bee3c4778279913fe497c7fbb	7961478	5	Wondershare MobileTrans v7.6.2.481 Setup + Serial - (Core-X)
995e1276abf63bf5d0a02690c58ba4ae0a4324d2	1758021348	2	[ www.Torrentday.com ] - State.of.Affairs.S01E01.Pilot.1080p.WEB-DL.DD5.1.H.264-QUEENS
9aa088b4b4ae866a54ee8d6c72d8b02e2c0a1e12	10805325043	1	Run.2020.H265.2160p.WEB-DL.MVO-AMS.mkv
9a62888e26fa6348659a8fac80454dea2f32a352	5808722712	28	MOST HAUNTED SERIES 5
9ab1fdcf445e74c2795f84e3d9969bbcd0133f55	833975738	1	617 Katie Banks (Hot Gym Sex) [2017 Omen_25 HD 720p].mp4
9ab38ea544d13fb60b753a638d7d584e828a5f97	288628372	4	JoyMii.11.05.25.Jana.J.And.Jayden.C.Games.XXX.720p.WMV-JOYMII
9a3ca48120c9becc0c795f048308bcde57e99abe	748593152	1	www.3MovieRulz.sx - Girmit (2019) Kannada - HDTVRip - x264 - 700MB.mkv
9ad5f7ffb4386882caad40b729a5f73c7c10bbf9	1646205377	4	The.Slammin.Salmon.2009.1080p.BluRay.x265-RARBG
9b3f5e0889be4419228810686a8bbcafaa24140e	1503023766	1	1992-1993 Антверпен-Спартак(М).avi
9bc6072147dca5d12f9211daa61785bbb861f619	701584380	1	Vina Caitlin - Horny New Agent Loves Stud's Cock 720.mp4
9b9e9f7ff3edf8cf5f85c5c5c87db00b86ee0d20	4250	1	Trekery_dlya_TORRENTA.txt
9b009bb5c9c598ce849450a9f87bfff9649ad723	414691730	1	Diana Gold & Petty Pol - The Blonde And The Brunette Share A Hard Cock_480p.mp4
9b72adc881b204dc7130c0ccefb1b491dce9a229	1760028790	25	Zany [15 YEARS OF DEFQON.1] (2017)
9bb1c831f83d2903f0686fde8a0f76f3d7a7ad3d	8804620288	25	Pogoda dla bogaczy ( 1976 )[DVDRip. XviD. AC3] [Lektor PL][Serial 1-12]
9b38249481e1922beaa619a5afebfa5c671aaa46	355751666	1	LennarDigital Sylenth1 VSTi AU v6 423 MAC OSX
9bf0deeae5ac5c583b2a694afdb5f507faee7f66	106951269	1	[SSA] Yakusoku no Neverland - 09 [1080p].mp4
9bcf153493a3ceee58183d0dcb5c6b33c25f8a6d	286390038	1	da_akira_lola_vl101314_368p_750_mobile.mp4
9b339510679e2555e670b3a2e6e69be8fb37f97c	4703707933	4	顶楼.Penthouse.2020.EP08-09.HD1080P.X264.AAC.Korean.CHS.BDE4
9b482f321b942962bff5dc784371c0002cd5d886	3681322785	2	FC2-PPV-1584745
9b2c8297e01aaa20232a531bf801c7d3926d8d8c	7963923	5	500+ 3DS Max Models And Textures
9bb3bad79997984091cba6329ba915ced3db6c97	97815657	12	www.Torrenting.org - WifeysWorld 17 12 08 Wifey Gets Blasted XXX XviD-iPT Team
9bc0b1e22ee95b3f6bb2e02961105ffac6d8f8a4	477802892	1	[Ohys-Raws] Katsugeki - Touken Ranbu - 05 (BS11 1280x720 x264 AAC).mp4
9b102de671c316d9317c8db466ce1359d8f591c8	999241480	1	The.Ides.Of.March.2011.720p.BRRip.950MB.MkvCage.mkv
9cb13f31e545a3014aa4fcffe74971eecbbd6c00	1621269141	1	ㄱㅇ아줌마 미씨 다른버전.mp4
9cf4c230ca7fe547a099e437887099809b91a26b	209578279	9	Bobby Hutcherson - Components
9c43263dbfa8a69ea296af6592b8ac82aa19ce6f	146679559	3	RealAgent.17.12.05.Nataly.Gold.Using.Carrot.As.A.Dildo.XXX.1080p.MP4-KTR[rarbg]
9c509e1895bb6c7e1eda8cc6cc8e29aa3bda379c	1298141146	1	Dreamscaper.The.Phoenix.rar
9cce11ad4808b56edd8814f1264103ca002794a8	685057066	2	Black Widow (2020) [1080p] [WEBRip] STREAM
9cd91987aa51357b6fdfba9e8759dbdf14c761f3	1498830161	12	chao-006b -真正的日本妻子吹箫2惊人
9d13bdac7efd19b26b261da4783df985bcd48a10	7961368	5	Microsoft Windows 7 SP1 Ultimate x64 original ISO
9d0fd62b944c66ab698690dd2e549f0229ef975a	232081784	3	爆乳高挑高顔值美女浴室湿身诱惑,扒开情趣白色泳衣露出大奶美鲍诱人
9d1d1b6c335ff685db5bba768636ddd5e4cc705e	720078529	6	www.SceneTime.com - 90 Day Fiance HEA Strikes Back S01E08 Burnt Bridges XviD-
9da2bb72b1d0c5703a95bb2ab80bb1e15dd54669	4711608354	57	1018ssni041FHD
9dfa1d255ca5c46561a2b97d501d6fe140d6026d	642029698	26	200314已经被粉丝网友疯狂舔小穴到高潮喷水 19
9d11e7f5ec1e7c04b2fbd47d743e9a91efc7cc6f	1388590827	231	BDA058C.MP4
9da56bdff3005387284c810b0bf97cec81f08fb2	224782918	52	Desktop-HD-Wallpapers-22-24.11
9d766d1f8109f321f659b6555001a3957c1955da	3089228676	1	Homeboy.1988.BDRip-AVC.ExKinoRay.mkv
9ea8ac3803df2749bc33f4a53619c2ba54735807	442465308	73	MP3-daily-2020-November-20-Folk
9e141265980227e49d3d97d8880e644feaa6c63d	364769229	38	【碧蓝航线】 绫波 (Azur Lane Ayanami cosplay)
9efc225201478b6f427ac5b851f6ec277b450953	7269336301	8	WANZ-826
9ef9a33b7406e89c049764ded7505d962cdb5a62	397631805	12	HJD_1584-最新推荐终极调教极品粉穴小淫母狗『江雪儿』 阴唇铃铛抽插爆菊 后入虐操 边抽插边铃声响叮当-1128
9e10e9d82876b22be7e9ff2abb3c5bf7ce8dca6f	96520436	1	Delotta Brown Interracial Anal_MPRT.mp4
9eb257c14c505fa20967fadfde9ec0d788bf4f9c	104622301	1	(歌姫庭園21) [内向性ゴリラ直伝サブミッション (るん)] RUNTATTTA!! (アイドルマスター ミリオンライブ!).zip
9e5ee42780b64ab6fbc2220c4897e16e320d739d	4279881728	18	Doyle Bramhall II - Live From The Great Wall Of China (2008)
9ecd14ecc2c8bf06154bec4caecca9aafd4e56c3	738572962	12	a049
9e6e3d6b586f5df4758f886728b523c8df35b7df	1312282624	2	Разменная монета.s01.(2020).WEBRip.by.Nicodem.Files-x
9eff8bccab17b1eaa7bceaa02b8c860d5bd3fce9	1360097750	6	cdrom-twilight-018
9e699dabafde484f627064ee983ada34f548fcf1	350657069	34	Neil's Heavy Concept Album
9f50d99da1c1e127305c708537d96d8ea6b63387	641668036	1	The.100.S04E07.WEB-DL.1080p.10bit.5.1.x265.HEVC-Qman[UTR].mkv
9f519a26904338220ff7371eef59fc6901cf02ab	7790291	5	Foregone (v1.0.1.11, MULTi10) [FitGirl Repack]
9f0e0496155866be535959601dab548634075eb0	1355107267	30	42.scop574
9f041ebccf8fd21dd57749752b7dffc811c569b3	89747575	40	20 Philosophy Books Collection PDF Set 71
9f14e095da0b6eb80c5b2b2d17385ee7273563bd	546999475	1	BigTitCreamPie - London Keyes
9f036db4148b01cf6ebb4a7579cd7a07c8ae01e3	2455428974	3	奸臣.The.Treacherous.2015.720p.BluRay.x264
a03c2d56a53c1300cb68ce120562875d6a72b31c	2818278711	2	The.Station.Agent.2003.720p.WEB-DL.Hun-Craving
a00c1c40880b167a6fe69931d798570782dc8d5a	251072	2	Weight Loss Diet Reference - Acai Berry Colon Cleansing and Detoxification
a0bcad9bb546d93c62e761b99604a4af11f2455b	458666737	3	[3D-Hentai] [Ribbon Frill] Dejineko! - デジタル泥棒ネコ [Censor]
a061de9be374bb707c326639ee9ceca0a032c987	4332331	4	SQL_The_Ultimate_Beginners_Guide_for_Becoming_Fluent_in_SQL_Programming_(Learn_It_Today)
a080bf9c75a4807ad38fa838e83d67cec16e45ba	253822006	14	5 Vymir - «Містолінія» (2014) (FLAC)
a0fdbe5f0763caeb57e65374bc34172a20733ebf	2308146984	1	HEYZO-1607.mp4
a00a4903949c377a39e7bc08b012e94d2faf90d2	259345433	3	WifeysWorld.16.07.24.Poolboy.Flirt.XXX.SD.MP4-KLEENEX
a05b8318f8a758786899abbc5bd243337b5444e4	249214069	1	BigWetButts - Loren Minardi (Leather Lover) NEW 13 January 2018
a1b66e19431f87a1be59a36a7c3d213eaee0600d	128915739	30	VideoHive - Touch Logo Pack
a1a0c07da2babef7319a5b22ba7646aaa5eb3224	7789686	5	Terminator Resistance (2019) [Multi-PL] [.iso] RePac by Xatab
a1e9037efc07cde8ecd5df19e093bca1540b4c47	1459714373	4	Bad.Ben.7.The.Haunted.Highway.2019.1080p.WEBRip.x264-RARBG
a1db891af9dd843020652f86b57ed6495251c957	7962183	5	National Instruments Multisim 13
a1c37a721dfc7ba2f9bc282d58e3adeb2dc61b94	17174742	2	OO Defrag Professional v24.0 Build 6023 + Fix
a1d744e06cca076880c178cc9b14492cc76086aa	287365330	24	VA - Marco Bailey - DJ Connection 6 (1996) [FLAC]
a1f84cbd3ead85f1b7434e8640f7ebd82be3fdca	878325527	9	Scorpions - Lonesome Crow (German)
a1d322fb7a35e284789ab1f7c50a0057ecae91da	124360522	1	28.zip
a240d3a346177d15931b28d2a27838f498a89e4f	3026270	2	J. R. Ward - Lover Eternal
a24d01f7140ebf986220fdb8d69168252b78f664	240018628	24	DeadrideR
a28cf4f502202b90d4de329fb7d9837db0b68281	519705061	12	HJD_2053-洋土豪米糕亚洲行嫖J系列-古灵精怪的可爱少妇 活太好 把糕哥爽的都呻吟了-1209
a2619231f7113abdb2ff90fc26cc21cfceaefeb0	1037727478	1	Filthy.Family.8.XXX.DVDRiP.x264-DivXfacTory
a265533d8f8fea2b580f1703dfe89e9de726cdba	2958821587	9	Aika
a2138b345d874eca7f145f865c0df30d6b34ebd7	110756997	10	Lynda - Up and Running with FM8 | 105.63Mb
a333fa2558807586d0614152f6e4d1c9f98ca51c	265136705	21	Chillout Jazz Saxophone 2014 320 Kbps (Epidemz.net)
a3d420187b2502247f308b7bf9964cc81b1f471e	7790769	5	emulador super-nintendo + 300 jogos
a3e7953d4737dc967368c285a715c5a19aea3348	7961312	5	Malwarebytes Anti-Malware Premium 3.6.1-Pre-Activated
a32e9057be2d04ba66ea9cad0d229dd13450ca8d	132226304	1	Tamil Teacher Aunty with Neighbor Guy Fucked Indian
a3f84879ac5f4b9d2a3c8d4723cf0146ac8e4a92	154484303	11	Dave Stryker - Strykin' Ahead
a3bc88a047f7e00a126248189732bdc368ccf5a0	3864113894	26	PPBD-198
a3cae5db7950f002fa7796c3fac8447b8bdb9fc1	13951128881	20	[FileTracker.PL] Ranczo - Sezon 7 [Alusia]
a3099228c87863b275f80e9e56da81770e3db9cf	1363915663	1	Live.PD.S03E38.HDTV.x264-CRiMSON[eztv].mkv
a3544d40fbfebb7cef98c9929c9f697c4d28f4e2	1303851441	3	空乘危机.E02-03.1080p.中英字幕.WEBrip.H265.mp4
a3327745f52105f1aab7bb00658da647f68492f1	664201516	3	The.Good.Wife.S06E18.720p.HDTV.X264-DIMENSION
a37945c9eec9b3eb650d73ea74c03bfa74dde7fe	354367787	2	30.for.30.Season.2.Episode.13.This.is.What.They.Want.(B.Koppelman.and.D.Levien).ESPANOL.HD.[ettv]
a47504127d08ecc2c775466007994c7ded980323	18337839	1	Hashimoto M., Modrzyk N. - Clojure Programming Cookbook - 2016.pdf
a4f5ef0f1baf2664d9cc333bfdb272f5ec04c125	4807786578	10	Corner.Gas.Animated.S02.720p.Ultradox
a4faf91f515dda5070674408bd9185c6cdff9433	376841115	30	Tomrerclaus
a40cdb4d2918042e721cecd30975c0623057a444	1939223157	12	[N]h0930 orijuku823 松崎 綾子 Ayako Matsuzaki
a45089ffc00a7eb088e0164cf49dd66d661d7a5c	275163663	164	DiaZerva
a450bf59d608fc95cde0f3a8c1d089f1c5f2005e	25918879	4	ProPhoto Magazine - Ray Martin on the Other Side of the Camera (June 2013)
a46f4951649d16c3ddf95d93483691824c493884	99497841	3	Julie & Friend
a47ed6ffeabf997c41465b220441beb0ff0d8e9f	17174697	2	Ashampoo Photo Commander v16.2.1 + Fix
a4adbe30e54831748190317763bb497239b442b4	256514984	2	Crazy Incest sisters! Hillarious sluts!
a452d2dcc8bc35211105ad90888ad5a8255b57d2	216369781	1	400082 - Taissia Shanti_480p.mp4
a4e978779047e81974968372e6955dcd2d83f8da	1981867252	3	Industry.s01.WEBRip.XviD.Rus.BaibaKo.tv
a4aa5cc22a6a667f5a71380d385bb8ab65bad0dc	1362721626	1	Grano rosso sangue.avi
a5372238ab96943195f8e6ab47b56de05995fc06	764240495	3	100.Thanksgiving.Day.Parades.2019.720p.HDTV.x264-W4F[TGx]
a5685be6e2ff9c488acaedfccb2ee042d8a1ec2a	1806900629	1	Doctor Who(2005) S10E11 AMZN WEBRip 1080p10bit.5.1 x265 HEVC D0ct0rLew[UTR].mkv
a502597dc1fbb4a414d046a608578a75f029b976	36309795	1	(同人CG集) [平成女子流] JK孕ませ調教日記.zip
a51de820b5129d89d7225f52f717f600371e7e93	157849850	1	GeometryDash 2020-11-18 19-10-40-574.mp4
a5665c0189ad8df934c51433b54677388566e6a1	7962096	5	Topaz Video Enhance AI - 1 2 2 incl Patch
a5c1b8e8dc1dd525fbbe3105a44d5c035b41a9a4	142268975	1	BARELY LEGAL GIRL SUCKS AND RECEIVE A FACIAL.mp4
a54585630f3064c38de1d17a3b5d88f272d552b5	1550277772	147	DVDES412MP4
a5c05086d4a861d968c2293e89180cab8f1cf6c3	4655515508	3	Keek op de week DVD 18van19
a50fb3566b3ee8ef471936f3881d0b6c3340b9d7	1775393543	1	Cricket 2020 Vitality T20 Blast - Lancashire v Yorkshire Highlights -mdarman.mp4
a51de913902c5e13be373bd402738d5b40e334f1	445737760	61	Albinoni - Trio Sonatas
a65192623c418abc0a0aa194bde408e388bae621	132238697	1	Bathing With Mom That Boy Will Never Forget.mp4
a6e0769ac34441a7e02f20ccf01d9840db656025	4468799488	27	Demonicus (2001)
a6091db293b48372a8d9a5467db7bdf52f2b692b	5092122709	4	WWE.NXT.2020.11.11.1080p.WEB.h264-HONOR[rarbg]
a65a794c76adb79950bf98ea287236c36ddd0c37	548276505	5	www.Torrenting.com - Deadly.60.Die.gefaehrlichsten.Tiere.der.Welt.E40.Making.Of.GERMAN.DOKU.SATRip.x264-RFG
a689f09899cccfbd62ea0043128d636a4b1b3ac5	126820466	1	wasted.s01e03.720p.hdtv.hevc.x265.rmteam.mkv
a6f4b47c4296e15712893644a45063710a57afdb	823742058	1	Beyond.Oak.Island.S01E02.XviD-AFG[eztv.re].avi
a618821f241b0ba32e43d4bbb0d12e285f13e2fc	18710024	1	Polacy czasów niewoli (M.A.W.) - Marek Ruszczyc.pdf
a6f04cf4dbc698356ab4e2a8be3676a095ad91fd	4463593001	104	ekdv639
a60bf8b8d16c29ec1cbffd9c11b164c1683931fe	17174743	2	Fable.The.Lost.Chapters.Repack-R.G.Mechanics
a778568e60bead4b9f9b622fd1054c6449113208	84497824	2	Ostrov_sekretov
a78c58f048f5c9437feb586db744df3a37b66175	30082404136	9	COLLATERAL_BEAUTY_REMUX
a783d7f59c2a541ea99c876e4b225847d0d38e98	193652655	12	www.Torrenting.org - ClubSweethearts 20 11 26 Tarre And Lana Broks Stuffing
a77ec940576960450d6679728461982406f2d4a4	7963400	5	PKF Product Key Finder v1.4.0 + Fix (CracksHash)
a788bb2c42928be2f6a9f214107e98114f1341b2	18981596	1	ika-emulya-431551522.zip
a8ac1e3b7b2a6c8a7eb3fa8cb377897c4d936722	649029549	6	dinocrisis-sourcenext
a8960e66a223190e8cc7ee76e5ba33accd015f4a	8951523891	1	Frankenfish.2004.WEB-DL.1080p.mkv
a8d85cffd44a32701704c475e3d8fc4733ac8893	6642920013	7	20200617v.(HD1080P H264)(S1)(ssni00806.wbcek1xc)【※異常なる大絶頂】エロス最大覚醒！性欲が尽き果てるまで怒涛のノンストップ本気性交 星宮一花
a8f0fd8b21da75cd336d1ea01ad01c42855effc4	801529660	1	JJ_Amara_Romani.mp4
a829e81f8652f88c18a6f5f35f67bfcd4609eaec	72626752	15	Talib Kweli Fuck The Money [2015] CDRIP
a8f86cfba4d261b5e4eebc50ba8f815baa0d5af1	467332579	3	Elena.of.Avalor.S01E01E02.HDTV.x264-W4F[rarbg]
a8ee4b6a88249443a9c5a839d89fe7072bcaaff7	705242999	2	Projection First Light [NSZ]
a8229af417d4034812c3af3c28ce746002d304f8	7963326	5	BBE Sonic Maximizer plugin, Windows DirectX VST, Mac VST . iso
a9049ec075a5dbdf454d232acd0fbed2154a3e1c	683003	1	07b48193-03e7-4f75-8a90-313480c5c721
a9e4cd9409702a9c6415a32b17090d79fc632026	890901416	126	Top Of The Pops 1974-1978 5 CD'S- Team Robin Hood NL
a935838fa4fdaf3959d9e3e835827c1f90301e31	3842450871	3	ErotiqueTVLive.20.01.03.Jay.Taylor.XXX.1080p.MP4-KTR[XvX]
a980321c1ecc5136bece2cca11334562d0527f49	532391149	16	VA-Clivilles_and_Cole_Greatest_Remixes_Vol._1-CD-FLAC-1992-WRE
a95acd328672a515c26e96718b35bd9d91ca6b50	431426325	1	Raised.By.Wolves.2020.S01E01.FASTSUB.VOSTFR.WEBRip.x264-WEEDS.mp4
a92afbcf2a64c0918b09a0647dc48f767f746a5b	4534753564	16	The Elite (2001) DD5.1 NL Subs PAL Retail TBS
a934a19204e35020dd2e86233b679cf62ebdc897	7933291	5	PowerISO 6.8 FULL + Crack [TechTools]
a9e0d4e649a824639e813c81e9836cb22e5a81e3	3153777162	3	Industry.S01E08.1080p.WEB.H264-CAKES[TGx]
aaacbdead9ead6a23d7cfdb314ab845557e42540	88525439	3	AllOver30.20.10.06.Zarina.Interview.XXX.SD.MP4-KLEENEX
aa720ac6e66685c8f2be0b0264a31242a543d661	171168760	4	Bless.the.Harts.S02E07.WEB.h264-BAE[TGx]
aa61eff5724fec6f75317bfedb69573b1d60d792	475578580	1	Kampen.for.tilvaerelsen.S01E02.www.subtorrents.com.avi
aae5a97c06195ae6ca8bed99211a757f9e2ec5e7	2085875122	1	HardcoreGangbang.16.01.27.Nora.Riley.XXX.720p.MP4-KTR
ab529061260cbb403a9fd970f3f576bb71175605	76824229	1	cabela.s.outdoor.adventures.2010.pc
ab94286d2e094d23abd19d35c0e9ae62f597ae11	154324748	43	Marco & The Galaxy Dragon - Luxury Art Book [Digital]
ab3940480eaa6a0aab512b05fdaa2affea70f726	234709372	1	German skinny brunette tattoo teen glasses facial.mp4
ab1c03810dd829b8ed50c7c180be9b86a407753c	394727	2	The Violinist of Auschwitz by Ellie Midwood EPUB
ab03639ac05f8d41271e452388e99d0f6db31042	52273160	1	7476475.ts
ab36bd8c03b84dbc7fc03d49c0e4b0a5ab9a1642	137275923	3	Only.Opaques.17.04.06.Holly.Jade.XXX.1080p.MP4.KTR
ab7e7eff614b2668f9ca5893a0e6212c79e4c262	716464734	7	From [ WWW.TORRENTING.COM ] - Dear.Secret.Santa.2013.720p.HEVC.x265-MeGusta
ab88f1678125954f4fdc530dbeb1cac602b94d6b	1430718	2	Widow's Point by Richard Chizmar, Billy Chizmar EPUB
ab8fbbaf98d8c45982206b7db124e13a961d5e85	1976090459	3	8thStreetLatinas.17.01.06.Lexy.Bandera.Spicy.Chef.XXX.1080p.MP4-KTR[rarbg]
abf12e27530dea197ff378fd727281fd01aced87	69611476	1	[Leopard-Raws] Bonobono (2016) - 135 RAW (CX 1280x720 x264 AAC).mp4
abb82340d338db10d9f9c750b76ec9b3fde025f6	5300817134	1	IMBD-360
ac96cc8bec8f82a781377bd4205a6678a3c1ca3a	264414790	3	Perfect Ladyboys - Lala
ac7dab143f745dbde9d0b57a20eaabd5ceffe957	1412324508	1	The.Conners.S02E17.WEBRip.1080p.rus.5.1.HDREZKA.STUDIO.mkv
ac139f458121f42c6058c936477c97f05859d299	3894099383	6	ONED-958-DVD
ac6187043ec1b46dba4e2bf9b553fb8c5e173fe5	397500219	6	www.SceneTime.com - Dating No Filter S02E16 XviD-AFG
ada8c9d2edac35f5850c46f65e0ef058568d8a15	257503874	1	[SubsPlease] Higurashi no Naku Koro ni Gou - 09 (360p) [8A340696].mkv
ad9ad7824b40601761085b5cd60ab072f6333018	1620566252	7	www.Torrenting.org - The Atlanta Child Murders 2019 Part 1 Into the Woods 1080p WEB
ad351b45976eda26156c6c1d19013db8f3f24819	7790985	5	RimWorld Alpha 17b v0.17.1557
adb0bfba219ba49e405128e7bc9dd1d3f9e0db3d	1500157161	1	Moneyball.点球成金.2011.中英字幕.BDrip.720P-人人影视.mp4
adb0bb790b53c3d317c72f8b4a3eb8855ca03743	721707203	34	Андрей Таланов (Stream)
adb7500729741f13ffa2c21da84007278f11724e	223511867	31	【黑色点击】【SEX8.cc】 再发和老婆爱爱 真实拍下大我11岁富婆做爱过程
adeb0e9da85987bd4d185696e9b47ed9ab1b7681	4326456924	12	A Dark Truth (2012) 1080p Web-dl AC3 HQ Eng NL Subs
ad31130b239d052a11778597e971657e31c70f88	735365120	1	Masaje del Bebe.avi
ad114b26455a72a346e042a5524ed1d961d0dd95	5311083142	7	20200823v.(HD1080P H264)(本中)(hnd00878.78ufmsdm)絶対にナマで連射させてくれる連続中出しソープ 田中ねね
ad483ff6fb5942db44f5e92e5046a6cc907ab7ae	1487660289	1	[JAV] [Uncensored] FC2-PPV-1579990 [1080p]
ad15d8bde162a816c6a90d083eb8ea37002ac2ed	7790758	5	F1.2014.Repack-R.G.Mechanics
aecab2756198d87cf81170ce5bb58ccb6c16a715	1696251383	3	Asphalt-8-v2-1-0i
ae14f4e17ed31133b17d3af222bdeed905af121a	793981592	2	Lumberjanes (v01-v02) (2015) (digital) (Son of Ultron-Empire)
ae1162daf805d5076aa410a80b2175f6cde1dc43	771068873	66	Gov't Mule - Georgia Bootleg Box (2012)
ae0dac40bdb3a71aa80df06ffba61a24bad39b4e	326774853	6	How.The.Universe.Works.S06E10.480p.x264-ZMNT
ae35a2b2f933b7ac87f309500a0613f273a8ad5a	160595968	1	pesnya_o_sokole.avi
ae8867ffefc631fb5842fcd21ec73e82f0a7577f	190890480	1	生活大爆炸.The.Big.Bang.Theory.S10E20.中英字幕.WEB-HR.AAC.1024X576.x264-人人影视.mp4
ae0c064e2b8ca67c0aad057e4f2ff06965049085	205536592	16	Brigitte Bardot - Show - 1968
ae32159e35a5f46c4eb60fa6cb1468c21445fc85	320401830	1	Kimmy Granger, Manuel Ferrara.mp4
ae3a84f14bd251f17e3d46cf42403c048502c6ac	7961860	5	DVDFab 12.0.0.4 (x86x64) Multilingual_Loader
ae777c144bde44659a1410bef614f0c887e3adca	1969264884	12	PRED-243-C-2K
ae5b2b4127b008873ac9cb0e47f44b02899cb7db	194540148	1	Amateur girl sucking and taking facial.mp4
af80063e933bc256a7afba9a82dd61829bc58d2e	556427213	3	SeducedByACougar.19.07.26.Vanessa.Videl.XXX.1080p.HEVC.x265.PRT
af8d4b237e110fb83f7a3345fd1d80f2abdc4f4a	5026479832	8	Цвет страсти.(2020).WEBRip.(AVC).Files-x
aff75caa94b28da9f9985a30a687e815fc95b98c	4723483058	6	FC2PPV-1178920
af4d87a0dc9d9635e175770f29be888c3a299294	678783455	26	2020-11-26-2-19
af40d57ab452c784cd25531ffbc28599ac2a7497	140956780	6	People Playground
aff890307a5a6ee3e8c65feff15c36213e3da9c5	7962102	5	Pixillion Image Converter Plus - 6 15 incl keygen
b0d72ce8ae5be241065ac108e7319d674f1b0617	1468182528	2	Jade Secretaire de Luxe
b00a392d27cc9f4c403c2268b6376e14c8295627	1392997885	5	PPPD-882-C
b0f04a22b16e906cb6aadce5edacee375b88e531	1295665984	1	[MagicStar] Kono Koi Atatamemasuka EP06 [WEBDL] [1080p].mkv
b05a4d7014be5051133f4eff5cd58bf68fcfb56e	1099884206	8	www.Torrenting.org Blood Relatives S04E06 Blood Is The New Black 720p WEB x264-70
b0673b2281c5ca3c97f0a3807f4e1c95d7e77b72	276294509	6	Cunk.On.Britain.S01E04.Twentieth.Century.Shocks.720p.HEVC.x265-MeGusta
b03b8cc646565e18f78c2d8bb081eeabbb83d59c	222440406	1	uchenik_volshebnika.avi
b06bc11bab58879b806324ef3dc5cd6a4d635ece	391951235	20	Чернышева В. - Путеводитель по Москве [Моцарь Валентина]
b01f1faedaf1c43a4e628d14a80d31fdffc577fd	673444185	1	cpf.14.02.06.alex.angel.sucking.for.a.signature.mp4
b118d33379c511cd2aebb02183bce029be37d530	137009736	1	The.Redemption.Project.S01E07.480p.x264-mSD[eztv].mkv
b153d3f0aeec189f517369855ec2b0daf3d01f92	1469842857	3	Where The Truth Lies
b1b573224f527999802b4b8cd5922e0f71ceb198	5075959	1	Flava In Ya Ear (feat. The Notorious B.I.G._ LL Cool J_ Busta Rhymes & Rampage) (2016 Remastered)__AAC_128k.m4a
b1bc08962a801c4bbfee4ab1261eff0ba767e3d2	4195556879	3	Love.Island.US.S01E09.Episode.9.1080p.AMZN.WEBRip.DDP2.0.x264-NTb[rarbg]
b15e26eda168d53637b8ed7f54445f97378371eb	894494911	1	Novices Bien Dans Le Cul FRENCH
b2d0a0b97883c51d5b474fd0f0b83acb5b3a1823	1149622272	1	Dabbe - Cin Carpmasi DVDRip by LordOFRip TORA torrent-ultra.com.avi
b237f406ed90d64b98cdac0f37693bd42c0af65f	352635993	1	[HorribleSubs] Cardfight!! Vanguard G - 42 [720p].mkv
b274a4728410dbc06901553ee9490b62821dee7f	1352524980	68	MIAA344C
b2b0f774fa5141205825bfda67303ab63ea22287	7961686	5	Nero 7 Ultra Edition + Serial PT-BR
b2dddce06c7cda58a0b5415d7fd329cc000efc8a	734200660	1	도쿄밴드왜건~ 도시 대가족 이야기 10회(최종회)(웹 스트리밍 캡처).mp4
b29ba08846592975cf8634d9d9cbca28346fb19d	7962077	5	HDClone.Professional x86 + x64 v9.0.11 Portable
b2182f4119b4b8df391abbd5aaa7cef7a2af4e9e	19674544	1	Wondershare PDFelement Pro 7.2.6 Patched {Mac OS X}
b3e8a684433b219a02e2164e378fd9fe43401f00	179364832	2	GirlsOnlyPorn.20.11.22.Gina.Gerson.And.Tiffany.Tatum.Couldnt.Resist.XXX.720p.WEB.x264-GalaXXXy[XvX]
b3cb8f67c0b3a946d83cd7f3ebee3e910807cb0b	7963160	5	Snappy Driver Installer Origin R712 Driverpack20052 - CrackzSoft
b350f4ee025f9c39daabb32cca992a1f58c7fa10	1020875168	1	Sailor et Lula.avi
b3727a69499f6aad7d395759c55b8fe07247a127	224336257	12	【淫满魔女】AGEMIX-172B YINMAN
b30b04f32b7af5e35536d83838214d936cb59c49	84538190	1	[Anime 801] Inko Yousei Kiroku - Little Bitch Album.zip
b39af3f058cf4654eaa678d99c1bd54b454f4256	237892652	27	Speckled Red Complete Recordings 1929-1938(blues)(flac)[rogercc[h33t]
b30ea45e4f4ecda2688f2ce7d1b6c81bac43bd6b	1073504103	27	[ www.Speed.Cd ] - The_Jury_2011.1x03.720p_HDTV_x264-FoV
b37a9efdd1198e06ae6ce28563ab85fdc746f388	2379146011	62	20.nnpj202
b3bec39731ac9fd36cb6eafbc33980c88ce63ab2	11251311	1	92f9054eba73928aae2598f674125f84
b3dc9d115a7b198b73fa276577b3f047a98434ce	3707663881	559	Johnny Hiland
b38fd97d9950b0eadb3166302f72a93b5db81ddc	3802585501	1	royal.pains.s02e09.1080p.web.h264-nixon[eztv.io].mkv
b3cf7ba3353feb39b66c545684143d2bcc1be7ed	20309917076	17	One Piece 935-9XX (TV) [MP4][x264][1080p]
b42551b16d67b85c5f08ef47240341a2cb56e228	21192736264	119	[傲娇零次元资源组]510母亲节献礼【正确の健康教育】
b4306b4ca6d4ce2da7ed1e36d1dc2a7823f92a6f	442510484	28	VA - Hits of My Soul Vol. 38 (2018) [Prepared sergey26.08 for NNMClub]
b468f0a6fa61a9f61b21d732b6480df3b12894a6	40140034	1	[Leopard-Raws] BanG Dream! Garupa☆Pico - 04 RAW (ATX 1280x720 x264 AAC).mp4
b4deb5a057ab4861af0c822751b9a56538ac59bd	1712240668	1	MVSD-308.avi
b4f1bbdb888dc0986a73c10e30e378a9bd744dbd	7963295	5	SoftPerfect Network Scanner 7.1.9 Multilingual + Medicine[BabuPC
b4c38e6fdfe786da56c8f1e8b1d9f517d0922fc6	1863195568	1	relaxxxed.16.06.18.vinna.reed.and.amirah.adara.mp4
b5d553dd6ff8f8ed706a8b0325bf98b7274daa1f	7790420	5	Don t Starve v 429404 [GOG]
b55de465e16cf59a1089bdbb38e0b74176fee539	17174616	2	Internet Download Manager IDM 6.38 build 5 incl Patch 32bit64bit
b587eaccfadfb7ab3a85a68b2a02e62d40dab354	96101892	9	This One's for Blanton
b5b562ca24e07d979518ccaa51099c2976dc45a7	688516403	6	www.SceneTime.com - Say Yes to the Dress S19E09 This Is a Randy Situation Xvi
b51763d2af22dd586448e09aae7568c15f8e6bcc	797838407	1	Grand.Designs.New.Zealand.S02E07.720p.HDTV.x264-FiHTV.mkv
b5b7ef599f6567db27c38fb2135ac4f526f6c6cf	979693595	1	秘密原料.Secret.Ingredient.2018.HD720P.X264.AAC.Macedonian.CHT.mp4
b546fdd2967ca15f4bd28660894c1a83684ac3e1	24999695	3	[2022.DEV]好闺蜜一起做裸体直播.mp4
b6841cdccb20f63f88c44b1b48cac52d8370c40d	1369138666	45	mesubuta-150710_972_01-HD
b67576d338a1065d93c234504c0bdc8a42a9c437	525001537	15	[LIGHTLESSLP003] Fanu - Serendipity (2011) [WEB - FLAC]
b630eefffb2a756bb750b58c1a784ab874adae3e	41238528	12	Off the Wagon
b6c517bf33e205632a6d4593c0f5bf62ac635459	7963723	5	Adobe.Photoshop.Lightroom.4.0.Portable.Multilingual.32bit.64bit-
b64eefdc391b16a0a6f9c063afa51ce2b44aa77c	9276691265	4	Windows 10 19H2(빌드 18363.1198) ARM64 VLSC 정식 버전 (Updated Nov 2020) EN-US KO-KR
b6b05cf3b3b425be4d0019460825b4646b97d28f	3784787327	93	Rainbow
b65ba6b13e71a7f9c4099b61c0b5f04eda387095	2079874808	8	SJO3TRH733
b6ced4f316dd5a38b5e90d13d93fbe72ceb81e99	271041392	1	Armbian_20.11_Zeropi_bionic_current_5.8.16.img.xz
b6dd109c07b66ed765de6b964ba8ebe54081debd	187024327	16	看片神器（www.mm8368.com）逼逼粉嫩多水的妹子被网友骗到出租屋不带套{蜗牛影视}
b68d400d25a8bc977f9f711c4068f3624bec87c0	725352038	1	【MGRT&幻之字幕组】【剧场版】我想吃掉你的胰脏 我想吃了你的胰脏 君の膵臓をたべたい【简体内嵌】【720P】.mp4
b6762de92f82670c1a3bea0d81cbab8d5ea367d3	3128172735	1	Ронин (Ronin) [1998].mkv
dfca31cbfd9967a6071d1c5aefbf45f96216fdf8	43320182	1	TradeEntrUkr_1.2.33.3_updsetup.exe
b6911143a17ee72fe24d5df9cf3756b9755be1f5	6122912115	1	NCAAF 2020 Week 12 Kentucky at Alabama 720p TYT.mkv
b72815a0695ccc946f3432bda9f31c32ba316e1a	1241176796	142	MP3-daily-2020-November-23-Rock
b73e19037d3d704ca0e7a37bbe318cf57ae31daa	994550395	3	Sofia.the.First.S03E06.1080p.HDTV.x264-SFM[rarbg]
b756ebd9b6050429d13d284338825a9cc34411b2	23092420	5	Adobe Creative Cloud 2019 Collection March 2019 + Crack
b7022f1b0a46a3c443da4bde4eb764e024b8aabe	1579405768	1	The Finest Hour 1992 VHSRip BG Audio GOREDOLO.avi
b71a0ad977ed94cc2bd9bd1883eea2a34f8667df	1303617171	1	RBD-721.mp4
b8b2af4a7a77e876e09318d7a430d68052c37d8b	512940892	1	九尾狐传14集720P电影淘淘
b8135e97f5b1d32a0198a880940e8d9d720419c1	378969941	1	PBS.Frontline.2013.Inside.Obamas.Presidency.480p.x264.AAC.MVGroup.org.mp4
b8d437e8e67263b7c79b890ed4ffbdaab73720cf	134450922	1	C249.7z
b8040c2cf4c22836931200bbfe7629d8b230acfa	3873239922	3	MyFriendsHotGirl.17.11.16.Stephanie.West.XXX.2160p.MP4-KTR[rarbg]
b9dd7f1e055b5f308e814ffad4eebf221b157807	385613886	10	TVBOXNOW 我們走在大路上
b9a24783f3b9f0933840247ea19e7145d7edf43f	4446545077	1	Ulvepigen.Tinke (2002).mkv
b92e6eaf0a78b43cf9bc3900e9ab806776be40b3	1581908818	51	Spitz - CYCLE HIT 1991-2017 Spitz Complete Single Collection (2017)
b9f99b214c2fa0afe199c4c13225d8582b138cb3	103303814	1	ImageRanger_Pro_Edition_1.7.7.1667__TNT_Torrentmac.net.dmg
b9982cea8f8fbb04682f651ed41077d882ca72c4	7961866	5	Antidote 10 v4.2 Final
b98675e0409728fa819a05f36be9b490f5ce57c8	3264641699	5	japornxxx-84
ba77c7d62ca6a75836074d2e7565f27f3f5da655	375581037	2	Paramparca S01E58 DVB-T By Ari
badc67763364d6a6614d0f3b26fb7f06317b4455	1281005741	1	stacey_saran_home_cuming_queen_hardcore_fucking_in_the_8931d1_1080_8000.mp4
ba00e74fca8ea479b23bcc15d977cf528753aa57	947433799	3	Dont Listen (2020) [720p] [WEBRip] [YTS.MX]
ba1156c0880310c05ab4ebaf883dd3c9db3b9671	437752764	1	NCIS.S18E02.WEBRip.x264-ION10[eztv.re].mp4
ba40eeb238d4c6af6953681b0063deae4aaefaa6	924151076	1	FC2 PPV 1579615 【幻の作品】国立循環器病センター看護部で看護師 栗原まきこ AV出演で身バレ
ba5eb87a06909091ad9b548ecc0e801e71a2d5b2	86621417	2	WankItNow.18.04.26.Dolly.Wank.Research.XXX.SD.MP4-KLEENEX
ba1dede99ef28012f29d29efe6e389da46ce10f0	7789775	5	James Bond 007 Nightfire (v5.91 DRM-Free + MP)
ba2735d562765531a6f9e12dc1151f7c56d6d5f8	1549127620	7	www.SceneTime.com - White.Collar.S03E11.1080p.WEB.x264-STRiFE
ba27fece29db53524d63cc2bd739f85d7ac817f9	64981353	1	00063.wmv
bbb06f21d2e0ad2af4c53ec581004f0deafa884c	979861694	1	Liar.Game.S01E03.720p.WEB.x264-WaLMaRT[eztv].mkv
bb7af502f0e4a461e32883f2ea31bf485ccf28a0	288723755	1	Mono Quest ver.1.3 [English].rar
bbe5247de2367111225c309b8e9ea3c5d5ac20b4	17174742	2	Jihosoft 4K Video Downloader Pro 2.7.34.0 incl Loader
bb194edb7798894a9eba1f53ede6c5f7a14ceeb5	416006695	2	NubileFilms - Luna Ruiz (Drive Me Tasty) NEW 30 July 2016
bbf75ead6a3aeb22b69572c83c405d20be1164fe	112197790	7	[HDMP4]11月3日 最新FC2 PPV 968694-（26才）美人若妻 嘗試丈夫以外男人
bc3e0311bf9af436580b53606a4eb06e33ddb15d	947802769	1	[Marc Dorcel] Megan Escort Deluxe (2017) NEW DVDRip
bc34ea9e594503d3db1121351d53cd6aaef38764	18541165	1	webcamXP Pro 5.9.8.7.zip
bcd651d51bea166531d947bae4662c16970f3c69	3075580979	1	Untamed.Teens.2.XXX.DVDRip.x264-STARLETS
bc50cfdd41a5b58b67c3c0a1c890cc3f42ca3485	363036804	1	The.Goldbergs.2013.S08E04.iNTERNAL.XviD-AFG[eztv.re].avi
bc24468a6e38dbf4d24fee6aba64e298d6fcd486	216223600	3	MoreyStudio.14.03.17.Maria.L2V1.XXX.MP4-YAPG[rarbg]
bcd2c597c60de08ae02f7e02669bd48cf2011cf1	5901849	1	Маджонг.exe
bca6b5b2884acaf19be458e3f6caeb072a6c09f2	16304427008	61	Delo.bylo.na.kubani.(8.serij.iz.8).2011.2xDVD9
bcaaa0f7543ff1a5aa93ee7ee1b47e7b565404ff	13156093056	1	Itineraire.d'un.enfant.gate.1988.BDRip.1080p.mkv
bd2b0506b1aa58f6cd0a6f4de6feef0b171757ae	301479030	3	Shadowhunters.The.Mortal.Instruments.S02E19.HDTV.x264-W4F[rarbg]
bd319a610326b19f9b31bb87c732d3febfb238c0	1182594530	5	Mywife-菊池 香奈 舞ワイフ
bd89cf3427846971ce137e9ff390f0f1817ce6d1	2823446886	21	SNIS-010 専属NO.1STYLE 坂口みほののSEXYチャ
bd90b889b162680dbc88cd30c6e84ffd48a04efa	216724662	5	053005
be24568cc1f4592767586071df86d0e0a067d909	1173309967	1	Smallville.S09E08.720p.HDTV.x264-CTU.mkv
be0f0a1d9869eefe1c50ec24378733ee035a9524	387258183	55	All That Remains - Dicography(320)
be1c2daaa6117c7251ec84a61c865d5ebd867027	3519876075	2	Vampire.Cleanup.Department.2017.720p.BluRay.x264-REGRET
be2d7d9203ba56a04179467ee9557c99dfd2382b	4426562326	1	Pedro El Afortunado (A fortunate Man) [BluRay Rip 720p X264 MKV][AC3 5.1 Castellano - Ingles - Sub ES].mkv
beb71b1b26c6a29730d835a08ce243db05ab2248	5730361756	8	MIAA-008
be3f35f3656bf738bcbe2f550846632841eaf07f	337625439	20	Avril Lavigne - Under My Skin [FLAC]
bee0bd763fb63bf46de66b695407cf72458dba84	1549493511	6	Super Anal Cougars 4 XXX DVDRip x264-RedSecTioN
be320a01d689ea3be40552e424bf0fddb6da8f8f	214755366	13	www.Torrenting.org - PornMegaLoad 20 08 13 Kim Velez I Want You To Spank Me
be20874e2803956441db180aea0a62f3981664c4	356685663	1	LatinAdultery - Mariah Milano [Release Date January 18, 2008].wmv
bffd915e1b43627f010c57e384ae961e0bd0611b	977073466	1	Дом-2. Город любви (6044 день) 26.11.2020, ТВ-Шоу, WEB-DL (720p) by h4ck.mp4
bf811cac4e979e91ac2d50a66d82c4c4a015ac3f	1663539264	101	vol.8
bfa708d6fc19f64ac3d2e10c139d7c5b2e7a9841	1005510500	23	Ratdog 2014-03-08 The Riverside, Milwaukee, WI [FLAC]
bf99c0ea33e91da373ec6db39a2c480af0356f48	228291317	1	XLDXFSH
bf91a9f18d121d03189d4753821aa2c186cbea58	7963333	5	MYOB Account Plus v18 CD OEM.7z
bfce4c3649295e684c79cf74fed00feeb1d5785e	10861557054	22	吸血鬼日记第一季
bfb61286e99a9b385c90223d1662c277adbdba60	12330674560	17	KFNE-068
bfe7ec8964c44db129200f3e695621b0a117e364	6039334286	12	Последний из Магикян (3 сезон) 2014 WEB-DLRip 720
bfc7861fde48ae54d79b5b9540184ccd40506974	296863643	9	VA_-_Hardcore The 2009 Yearmix_2CD_2010
c0bc7ed0cc9f628c77f152dc76d92d25bf97e257	7962813	5	Xilisoft ISO Burner v1.0.56 Build 1224 + SERIAL
c08819d8cb74dc0571f94a170db5f7e00b792958	2220966146	72	CLUB589
c03e330afdc0206d418ea909a60c5d70bc4f276c	75422078	28	Shakin Stevens-The Collection-2010
c08b348cc5b737edb015b2113a50718039a3476e	1127807418	9	701-30
c064ea7b43828a206b1639fd94c64143e7ccffa1	7789039	5	Euro Truck Simulator 2 Road to the Black Sea v1.37
c0897504f59ad1c8da939810250914cde58545f0	8914589	5	ElcomSoft iOS Forensic Toolkit v6.50 Final Patched
c057a8117ea3c4c6b171da43c944f47e4924bafb	7961746	5	Aiseesoft Audio Converter - 9 2 22 incl Patch
c1481c06bb34f6f2f054b070283ae247eb122d13	125450287	1	Porno Child [jap loli].mpg
c1214e9f09cad65d0b95f700eb32b9800a576917	7961525	5	DigiDNA iMazing - v2 11 2 Final + Patch
c1a8dc9f8b9fe585207fbd309cd34df3cc43f81a	532049388	1	Save.Me.S01E04.720p.HDTV.X264-DIMENSION[eztv].mkv
c1850b63e11eacb93499a3e93c179e73f6f92246	759083472	1	Hazed.mpg
c1767392f26893bc6969760c019de9b09370c87a	60219618	1	Под домашним арестом.mp4
c1bafeff80924bf9b73dba6e24d066b992f24493	172783158	20	Best Of Female Vocal Trance 2015
c1ad1350ffddcc5cfd788e7ce1aaad91eeb8f0ac	254541886	10	TVBOXNOW Fit 開有條路
c17814fd27a83ff5ad67727d89a2330e8a8ea9af	5205344	1	Inside the Company CIA Diary by Philip Agee.pdf
c1d899a0d0bca9e9c7025726c727d61cd12120b1	228294656	1	malchik.shel.sova.letela.avi
c1587af717e266c769e70bf97c36b565d15378bd	25575217285	205	[HorribleSubs] Black Clover
c1b2c38ce871493fd8e126913645962d8ad68eec	7892714	5	PowerISO 7.4 + Serials [TheWindowsForum]
c24467230b3bcaf3638b59a1d2f74091b1671804	152608719	15	AmateurAllure欧美极品绝色美女无码
c26693eee7f93816b480588d4b6e89c7d8dcef12	1591924795	68	EBOD783C
c279fff845fda7ed6aa77e4e14527068685b892c	202330478	6	HGC_1608-“小骚逼裹的J8爽吗？”91大神撩妹咖啡店搭讪极品美女大学生开房造爱玩轻SM呻吟特别刺激对白很淫荡-1128
c21a2bface5657ef322f7862650ac59d41104149	354873981	1	Kalina Ryu.mp4
c23bf42775727f27f511bf521bbd7f8777644382	679727083	53	229SCUTE-190
c2c744dc6a3bdd7371b6a5a479038fb4e192f482	101131899	1	(一般コミック) [瀬川はじめ] 東京ESP 第4巻.zip
c205b4593a93c40be8835a7883deb8bda03190aa	286751484	1	Stefania(Anal Teen Tryouts 17).avi
c2d2bb6d04fbb2d5f276f42de03f60c4ff70f2af	332671622	7	www.torrenting.com - Blackish.S05E10.iNTERNAL.XviD-AFG
c3155c540392ee8aa9dd973570236fb62543cb05	1915006782	1	This.Is.Us.s03e11.WEBDL.1080p.NewStudio.TV.mkv
c39ad586a7b7e0b14f15ac18a251c8bd74af3d2c	367908360	2	PureTaboo.20.09.15.Athena.Faris.Tourist.Trapped.XXX.720p.HEVC.x265.PRT
c3b514affb57693b3f981d0c3beddc601f281e67	275576387	3	TrueAmateurs.20.11.27.Molly.Pills.XXX.SD.MP4-KLEENEX
c304dce4db46eae7b2b1f6c16df645560f28d0d6	755630020	2	The.Legend.of.Korra.S01E08.720p.WEB-DL.H264-Reaperza [PublicHD]
c33ba194b9dbbbc169ad017a73cfec6383e624e5	21165370	1	Głodowski W. - Komunikowanie interpersonalne.rar
c3c03d65252f0ac6654ee4371e28a771fc4a2ff8	2355855140	2	Professionals.S01E01.720p.ColdFilm
c4aa68747aec647c23363775453a103c21b5f60c	3144017290	28	heydouga-4194-026-HD
c4425b47a117746f35c774e6cd884de8ec75230f	552568597	6	1122001
c4d278ce43a1f3408ee52661302634ec311f2c6e	404577004	12	HJD_1431-新人xh98hx新作性感纹身超S身材女仆诱惑 暴力抽插超淫荡 淫语浪叫太骚“快肏我 怼死我”_1124
c4b19a26b03f6579bd9e118aead5ed708da5c587	110915838	17	Ten Years After - Now (2004) [mp3@320]
c4fd8e75d04814ebf058202867041b818c1b559e	154484100	27	【MMD】舞蹈向-R18 TDA HMS光辉-AOA - 심쿵해 (Heart Attack)
c485bdabcae4636cd2a028b12cb48a159bccdbd7	26860559	1	Timber Home Living - August 2018
c42d6cd9f44f3216edfc06af60887ce7801a97fe	2826058060	2	FIS Alpine Ski World Cup 2020-21. Levi (FIN). Women's Slalom. Day 2 [rgfootball.net]
c598c41bde0105814f983090831c3b3e8005c147	890454613	2	Parks.and.Recreation.S06E04.Doppelgangers.1080p.WEB-DL.AC3.H.264-BTN [PublicHD]
c5f701be8a4547f3d9f686d479bba2b85124b74b	2200143137	1	Commando.2.2017.WEB-DL.AVC.1080p.BwTorrents.mkv
c57a3b673ae127b927edf0b4c9013ffd741a2d8e	732438582	2	Born To Win 1971 DVDRip XViD[SN]
c57fe48a3d7acf1509fd14f4e30c53884d567f95	163563694	29	2020-11-26有聲小說4
c5abf8f58e8599ac9ec9ee5071cb938a1b826ea5	24217913344	33	Inspector.Morse
c586779eaeaaeb01b382d59fb88da9b620bcb2af	7456428664	24	JoJo's Bizarre Adventure - Stardust Crusaders - Egypt Hen
c5d039f793b7fd09325bdde68b54da6540d018b2	669199461	4	7 Kira Thorn's Cum Covered Group Blowjob-170-1080p - {seeded if needed} - xsitev
c5600a43b8d3654c4be24c849276cd869b9766d8	1110773658	3	GGG.Casting.Girls.No.58.German.XXX.DVDRip.x264-SEXTAPES[rarbg]
c58f0a657502b9463cd105cb62a0fb9c316d60dd	1545531309	2	[201127][1102486][ANIM Mother＆Wife] いつまでも息子のママじゃいられない！ ～世話好き愛生母さんのむちむちおっぱいに甘えていっぱい射精したい！～ DL版 + FANZA GAMES特典
c6ff6caccabfcd2905e776b81ff536d6d4861f0d	258699795	1	kinkyspa.16.12.29.maya.bijou[tk][480p].mp4
c6d5dfb8a0fd14655a7e99eb3690c0a1fc8e0c17	1163256430	1	[EroticaX] Hope Howell (Two Lovers) [1080p][.mp4]
c6b36ec00a7e09e4334922600508a5c04f180673	1006898604	1	India Summer, Chloe Cherry - Mother Lover Society 18.1080.mp4
c6d1260b03131e23da527acac2541c85fd8f14a1	4516550664	17	New_Snow_White's_Legend_Pretear_tfile.ru
c6be472267e4a5848fc735ce4c97cd37586be9ba	2560637675	31	SIRO-4277.HD
c6b7618b4fe9e9a5f165ddf7f751f25a9c3723db	275896945	1	【GirlsDoPorn】E329 19 And 20 Years Old【ABE】[720p h265 HEVC].mkv
c66336e22c560bb0d3fa0dae6204cf5834dbe9e0	7961341	5	Nitro Pro PDF v13.19.2.356 Retail Enterprise+Patch
c75cfc4c32550731f599d14a033733033996b01d	111885353	1	youtube_v2-9uKsP3SJ8j4
c745e7b14c41e7741f1f0cc54d92a37f14bb0947	1352198558	3	STAR-164
c7ddf54a4b0c77f58b17770983319d7e2406ba48	899165123	1	Blade.Trinity.Extended.Cut.2004.ITA.ENG.720p.BluRay.x265-HETeam-ZZZ.mkv
c72a5daf29b5669c116232cc9659801b7d44dc54	2965352448	4	Абриколь.s01.(2019).WEBRip.by.Nicodem.Files-x
c7576f087ab73e68dc3389dd7733205b065895a6	1950539418	16	HND-914_2K-C
c7e89b3efd7d5da93bd8bec5c29b0d7d1c4841b0	7963808	5	OnTrack Power Controls 4.1 - Patched - EDB to PST MSG
c80a7ff11595008d44d4989fad16fa8a55b0e170	267506098	1	sop050ATK_366953001_sd.mp4
c8ff7a232a3fdf08d495a87d748dc5a3334e7986	1571982153	8	www.Torrenting.org - Double Shot at Love S01E06 1080p WEB x264-TBS
c8f10cd7c95b8e8402b16fd025b7328604d8c79a	1664886550	1	ExtraMovies.wiki - Avengers Endgame (2019) Dual Audio [Hindi-English] 720p BluRay ESubs.mkv
c8efbedc8da8031b0c82b176cd330f8c17fc129f	4096185534	2	Shazam! .2019.1080p.BluRay.HDR10.eng.fre.x265 hevc frank
c8c4fef49d7e788a0e9978700e4737a1e8a49dd5	293882501	1	Windows XP JACKED_lite [10.02.2006].7z
c91d6d43b031cacc9c4b7b38020aab4636809e01	4206018	1	Warren G ft Nate Dogg- Regulate with lyrics__AAC_128k.m4a
c95a037baf48168595f82c8608555588e2be0e08	1730428129	1	Burning Angel - Rock And Roll In My Butthole 3 2013
c9e8d7becac4f965f2989e174613146475055b67	2142676281	64	Credo (1994-2011) Lossless
c9ff269fae01ae3334d459207f7e60b1f722ec94	231237535	6	HGC_2099-最美哺乳期人妻露脸与蒙面大哥啪啪，奶水挤在鸡巴上再吸一口玩深喉，主动求草被大哥快干死了，表情骚特写-1210
c983c55cf5e1f163536d49bc1a8dacadb28f93b4	1306824136	1	ATKGirlfriends-Rayna.Rose.Las.Vegas.2-3.1080p.mp4
c947776c4b416aac9bc52b5b3c74ad5e18a102c4	5388513863	1	Fargo.S02E08.BDRip.1080p.rus.Uncensored.5.1.HDREZKA.STUDIO.mkv
c9fe19c47dbdf1513118af964c7a0e4e43e711dd	438530183	7	From [ WWW.TORRENTING.COM ] - Chopped.S31E09.Beat.Bobby.Flay.Part.4.WEB-DL.x264-JIVE
c913ca5d7fdd7815f509023a66cef5ba10dd33ff	947215838	3	川奈栞 - こころのシオリ
caa1d81917f3c9ef150cb2d6aa7ef70478d80284	382996480	1	Nana Mouskouri-chants de mon pays.nrg
caa2d071a358092a5800f049b4a77fc5d02ff288	724220230	1	Kak ustroen mir s Timofeem Bazhenovym (Jefir ot 27.11.2020).avi
ca4ed286d4c15f6d89191eb7e88f9fd1638c5ccb	298747336	1	IKnowThatGirl - Britney Light (Blonde Teen Valentines Surprise) NEW 09 February 2018
cb949d08c533965f349a2150781253192c2ab711	4681377792	1	Fred.Claus.El.Hermano.Gamberro.De.Santa.Claus.DVDR.[Multi].[www.MoviesDVDR.com].iso
cb76187713e74e099272bf3497190c768ce71831	1803077673	150	MIAE355C
cba83eb37cc0528dba3db36e113a8d5d165d0338	1466746880	1	Pavarotti.The.Event.1990.XviD.DVDRip.Kinozal.TV.avi
cbca7eaa2ed0140c476d02fadc3f513349f4223f	150094232	14	Chano Dominguez - Hecho a Mano (2002)
cb06bd5e60a3be9f8d3be2d279fcf467d99da845	188985372	1	Leah LAmour - Leah LAmour does it again!.711x400.mp4
cbae036f41e9984df920010dc068d95b50e3614c	147227429671	32	Новая папка
cb4b1c19bd33a7c56ff2ad6417e7299cefa65675	2507221030	2	Fick.Meine.Ehefotze.German.XXX.DVDRiP.x264-TattooLovers[rarbg]
cb1e15e1c25c9aa1c22dc77d2a44592d081dc9af	107926941	1	Пьяная сучка хочет секса_(domaha.tv).mp4
cb90f7e1b7851be71a957be4238afc53a1475fc6	17174716	2	Sony Vegas Pro 17.0.0 Build 421 incl Patch [CrackingPatching]
cbac55df238f3406b889696fa47b641500786cd4	1552570633	3	Quantico.S03E12.1080p.WEB.x264-EDHD[rarbg]
cce99208cefdf6fe282287b94e05c914283dd600	1264256919	2	Boot.Polish.1954.DVDRip x264.BG.Audio.ST-67
ccc5efa5bdfc64200e2a96a61a915582ce6a3e24	17174697	2	Among Us v2020.10.8i
cce990c7808fda3d1e70cf49751fd284496d9f3c	2804817497	1	[J&M] - Emilie, Prescilla (25. 8.2015).mp4
cc1a7eeebc68cf3d7a1bf8fff11c3e1aa0fc677b	709464665	115	4017-219 Yuuko Miwa Part 2
ccdb52613ac255f3b238b248fd292d53debf73d3	280510222	2	South.Park.S17E01.Let.go.let.gov.720p.HDTV.X264-DIMENSION
ccc36cea9c4fdacaaa2abed80ecde8eaff4c59df	14340543526	1	7 Sconosciuti a El Royale - 2018 - HMR.mkv
cc2f3651d405a52f50ce2e294ae072e60fb748e0	785508092	5	17
cc3f381ad514b3b6af1cc663395b0fe845520ee6	354908662	4	PureCFNM.13.05.17.Magic.Powder.XXX.720p.WMV-KTR[rarbg]
cc781cfe4a5f9d78492bf8fade9399be589a7ee8	736354304	1	Shaolin Girl (V.O.Sub.Español) 2008 DVDRIP Xvid-Mp3 (Estrenos-Sub.com).avi
cc49ceb3f5ca0d605d86be6ec26538e99e1255eb	380632744	1	Chanel.Shortcake.Stretch.Spread.Swell.BTS.mp4
cd0f414f1c3a605962ee5ab1f218216bfc75821f	542058039	1	Baby Got Boobs - Brooke Wylde (Brazzertarians: Worshippers Of Porn)_480p.mp4
cd022f6a9e0ff5c2b3b8584a4440bf651493fd2f	3527363149	36	HUNTA-442
cdef8917b3b722e1467468c8f16eedb1f6852e32	124510733	1	[120905]TVアニメ『輪廻のラグランジェ season2』 キャラクターCD Vol.1「まどか編」／京乃まどか (CV：石原夏織)[320K+BK].rar
cdb29ae80fbb5b8e21bccd17a93586d3892c7c36	213907770	33	VA - Подпольное Вещание - Сборка one (2012)
cd3e4f7c2c41cdea0bae4ce02f1d04fdd31c803b	1461305344	2	Platinum X Pictures----Riot Sluts 1
cd8a0807ed7e4d03b9d1fbd50067a974a05fe846	732200960	1	Teletubisie - Och! Co za bałagan!.avi
cd537f9e3cc30c91ecf0d868b6bdfbe3c297ae54	228040903	1	Ryan Green - Buried Beneath the Boarding House.mp3
cdaa163ee756c02de7dde47776db7a14e7818786	762310700	1	star.trek.2009.720p.hevc.x265.rmteam.mkv
cdc4c2556c83bea18ee8a9e96c89db831f8a55c2	7790311	5	Call.Of.Duty.War.Chest.REPACK-KaOs
cd4f4b4ee6cdaa4caeb8705f9e77e294866b23d6	717402112	1	Harrison's Flowers.fr-by-daijo.avi
cd82e427cefb67dd0afe298a48288c10e28489d6	6698552968	1	F1.2020.R15.Bahrain.Grand.Prix.Weekend.SkyF1HD.1080P
cd8b2e678ea03d2100c0568cde0972bf8a4f62d7	4104147	4	Gods in Dwellings Temples and Divine Presence in the Ancient Near East by Michael B. Hundley
cd325fa1f3a1e4971ee884a47150d3e52d7739ee	7790981	5	RiME-CODEX
cd516fa6c9821f05e217246ee92d975fb71e1bf6	204929912	1	[Nekomoe kissaten][D4DJ - First Mix][03][720p][JPSC].mp4
ceb3cad16fae0e79e35439f56f2a7b6777907326	12907021859	14	720
ce5fced515c871b23650d3f378076ef678a8f12c	96839503	25	HGC@0151-高质量学妹自拍、骚女和男友裸聊啪啪
cece5ff0df927770d2fc29b2b85ef26ef3f69e3a	360510784	2	TransAngels.19.05.11.Foxxy.Sticking.It.To.My.Obnoxious.Mother-In-Law.XXX.1080p.HEVC.x265.PRT
cecf3467a1aa76306a79d1616eb8b748b18bd945	16254468	4	Philip Sellers - PowerCLI Cookbook - 2015
ce669492a654de4852a923277f6206c77f00b792	27023817914	120	Saved By The Bell
ceadbb8ce44df65c1c29372a1661877624693f95	253076526	1	MarginNote 3.3.6007 Cracked for macOS [CR4CKS].zip
ce5c48a1644d7fe1b685899b5d088ae6bcc1cbac	1504830691	4	【cosplayjav.pl】エロあり撮影会 東〇希Ⅱside-B
ce8ea10d4379625a2be421609d8f74a7944f64e3	1377691897	2	UMSO-063
cf1b8161cc5d118a3872ad932e067cde86735142	1628187857	3	PortaGloryhole.17.05.12.Savanna.XXX.1080p.MP4-KTR[rarbg]
cfc15c4add9733def241e2f9d8d79c53cd8a5649	414386215	6	112305
cfa260c105f8c1511603da548baf52ce645a5556	54249228642	67	【bigwai】Czech Casting_2018-Updates#1
cf0548466636cda23e559fca82a792da38947d7b	17174671	2	Project Zomboid v41.44
cfe41ffb6e1d47bb2f14721908174e1684b33d81	1251961033	2	SexMex.20.09.25.Gia.Kush.Gang.Bang.School.XXX.1080p.MP4-WRB[XvX]
cf25ff98e2666a398eaf45aefd139d2e10b731d2	77440218	5	VSO Blu-ray Converter Ultimate 2.1.1.4 Final
cf008ebc4ae24ae4302494b5f7d27a7393c289ea	352845591	9	Kitty Catherine Toys Her Wet Pussy With A Dildo XXX AdultP2P
cf98d6f01025536bb1c11b46fd370dc08d4f67ec	1445648053	143	MCSR274MP4
d0799edd991c7577b95068df5d7cc24b33e1ac6e	1178039147	2	[WowPorn.com] Ulia
d0fcf17ea22ac90661617c41e2f0ab80d9de726f	53493502	1	Adriana.Chechik.Test.Of.Time.nude.mp4
d046431dc12d587b90cfd4cd3c31072543b77a7a	1557	1	MSI App Player.lnk
d0d3c42926dc1e1c4d4b534e43539850eeea8a94	455838500	21	Chris Norman - Midnight Lady (1993)[FLAC]-[TKRG]
d071d8952666ba6bcde6f389f598c5f64ac81cb1	4694072625	1	The Forbidden Legend: Sex & Chopsticks 2 (2009).mkv
d0bd4117e77d184051d343e19893f7478f64cdd0	52796256929	12	Carnivale_2
d0aec9ee0457964dfe7f7ee76f49ca3eb5e9dfe0	38524173	1	Omnisphere.rar
d0cbb62cdfe6ca0a75fa4cfdee0be81795a34de1	7679689196	1	Фарго.1996.BDRip.1080p.ДБ.mkv
d0c661667f466d8786491c930a97f96a94f8c0ee	891045350	5	流出新春校花门事件金钱社会有钱真是性福可
d13a44730274261dff02516a8cd00fc2af70e900	1522053552	1	43.zip
d1b0ae2c049e115dd79260b9c49278335f267937	7135284497	7	www.scenetime.com - Laerte-se.(2017).1080p.Netflix.WEBRip.DD5.1.x264-TrollHD
d19ec17cb1839c0498d970ae2f97cd4666f2fa5f	80573723	2	Николюкин А.Н. - Американский романтизм и современность
d1ce1f126e72f1073211a266e42f8dd31cda5d64	180336033	1	Caravan.v1.1.19786.MacOSX.zip
d10916e5127407927d8466ec192984805fc15576	55351553	131	Only-Opaques.com_15.07.17.Tammy.XXX.IMAGESET-PicWank[rarbg]
d16dbb0e305b096dbcd0ab10b071c1eb6d3d0478	17174725	2	Max.Payne.3.Repack-R.G.Mechanics
d1e2a3c20c29353d58cd7e6546c35be149b71e9c	676229312	7	GothamE20.TORRENTDOSFILMES.COM
d13a86bcc60d92e92a638e2ffe1c570602adb7a5	7631308576	25	HUNTA854C
d19a4eb4e5c0fb27cf6cc5058d4d5e846805cade	190797682	4	Grand Canyonscope (1954)-Walt Disney-1080p-H264-AC 3 (DTS 5.1) Remastered & nickarad
d1ee8274d5f748ac5e4f1f4f96c74d3be89ff3e1	321748066	1	Amari Anne - Meeting Amari 11.25.20.mp4
d2dbd31482ae442a0004b09b26867681c99e8d17	2329152933	2	AbbyWinters.20.08.29.Helena.T.And.Tobias.Hairy.Armpits.XXX.1080p.MP4-WRB[XvX]
d2f473b0de1f3fadc996c8a31de2f609cb8b1c1a	37180139	1	[Eromazun (Ma-kurou)] Keine Sensei wa Sei Kyouzai Keine-sensei is a Good Sex Reference (Touhou Project) [English] [Panatical] [Digital].zip
d26476c91d6637d59f53c3583396cd4be6f0b1ac	763052309	2	Safe.S01E03.720p.WEBRip.x264-STRiFE[TGx]
d20e4cdd77f352beaf8463632d307f3f6f868ac0	3118988887	2	France_Ligue_1_2020_2021_11_day_Monaco_PSG_720_dfkthbq1968
d2024a37839130888388f055127b62b71dcda5e5	265951092	1	Armbian_20.11_Macchiatobin-doubleshot_bionic_legacy_4.14.135.img.xz
d3eaaa2c2607cc650dd486c19d5c16739b7d270f	1217113766	8	olo@SIS001@MXGS-834
d35d708677c4b51cf6e11b975c41ed5034e3581c	396234152	2	PureTaboo.20.09.29.Lisey.Sweet.His.Fathers.Legacy.XXX.720p.HEVC.x265.PRT
d3b7ae996d3d4da359fdea784232b46db2d29a34	804984300	6	0706025
d3f2d8b38deabe1fde205bad4753f96f68c66850	740697043	31	H4610-ki190901-SD
d39b6ac9de539c086ae331731bb5ec913fca3a68	2105129295	1	Auto.Age.Standoff-PLAZA.rar
d35318e06dde537bfb5dd18a7598b6095b0cb481	1346008608	8	The World At War 04of28 Alone 720p Egilman
d3fce6cab423e61b9f1b97accc7630f1d53f9b9d	287842600	1	worlds.most.unexplained.s01e06.supernatural.sightings.hdtv.x264-suicidal[eztv.re].mkv
d3a84b64dca166d71ad717d22490d19890db4aa1	464797361	7	olo@SIS001@muramura 042316_384 我用身體來付！弄丟鑰匙的美乳白虎女孩用身體來制服開鎖費用[中文字幕]
d34dc5300e12480a6588c6bcb864c14ec243bba7	1152179983	484	Plumper Pass -Karla Lane - After Party Plumpin NEW 03 16 2015 Video 720P 480P and Full Picture Set
d326552f67288f2cfd2e1ae76de3e925cacea7da	967678422	4	The.Keys.of.Christmas.2016.1080p.WEBRip.x264-RARBG
d3665c27c2f3d4432de1952fdcdb5558cb7b94ed	283149	2	The Queen's Gambit by Walter Tevis EPUB
d4f279f2a0f551668dcef96ba199ff320ed5c327	120700867	1	FamilyStrokes - Blake Valentine.mp4
d4b04a3db8835771c8817cd2ae401f46c81bcea3	1635847827	2	Nei.Panni.Di.Una.Principessa.Ci.Risiamo.2020.iTA.AC3.NFRip.x264-TBR
d41ff8bbf9e0b70198bf149f900c3a2c2dcb83c0	9453314	1	[이승철] 일기장
d4e21e21caabf3f2a07134a35ddaefdc5db8d1dc	4750017249	1	SPRD-1350.mp4
d4d2b88f9909db7e573d3e5fbf9007d4efa1a9e6	2214896469	5	Pop That Cherry #6
d4e0d3bdd6a70e7d150236ec0584246df4ea5de9	13435362	75	alura-jenson-pleasure-cock-for-me
d52b32df26b852426b5e42e0d1a8b4e0961b8517	1501237736	2	[EX-TORRENTY.ORG] The.Christmas.Contract.2018.PL.480p.WEB-DL.XViD.AC3-MORS
d5569061cc376348e3856abfb6c76b0aa00dde24	618266540	1	Nikki Rider+Jessica Gayle+2м (13м=HDTVRip 1080p=589мб) (из The Bet=2006=ATV Entertainment).mp4
d592a9d6eeaf8bb9d9a2591e2b6be61bbf99c63e	955971771	37	17.Streaker Girls
d5544ab8e5abfc6c903d27db8eb4a345c9e2e088	779005952	1	Beyond.Forgiveness.1995.dvdrip_[745].avi
d52b9c1320977b1a188dc50df5751d31bcc50eae	1463836672	1	Gospodin.taxy.1970.XviD.DVDRip.gurnasi.avi
d5da4f8dcf814d4136077f8166e64c8ae8ff4ad3	7789472	5	Gang Beasts v24.10.2019
d57c321701b5a9ddafb4113f290dad954fa8a8dc	3901769195	2	FM20201124_해외영화_팻맨
d50d2c2633ced08ee085106f0bacc249f12976fb	183472481	11	2020111344
d67bb5e7809d99a8e66d262b7e68cf9bced44c24	1257148226	1	Jennifer Lopez & Maluma - Pa' Ti + Lonely (American Music Awards) 2020.mkv
d6f0c3edfc00d482d7512784787bbaa8b4751f29	210154657	1	MonstersOfCock_Sarah Vandella_ImgZilla.mp4
d62cde94372a9390af45e2b377ecea0ccc427533	6009433583	1	Boss.Baby.2017.BDRip.720p.mkv
d6e26f2950f22a7112ae48657510de229bf5dd99	1720423412	1	Tarra White, Sofy Black .mp4
d6e06c57f06de71a0ff9fde9d9659c04f477a3b7	695949382	26	2020-11-25-2-34
d6ae793c59aabd9f0be1cab798a3be193d83b9bd	249100310	1	young sweetlolita child porn pornokind 10 anos jovens do brasil.mpg
d6d12926c94561c1bfc8965dcca0f612c68bfdcb	117047454	7	[FHD]10月18日 最新人妻熟女 101818_358-豊満肉弾妻肉棒依存 成田あきこ
d636eef21d30ca2d8972e37cc7c344b3876999f9	1214881975	1	B.Tech (2018) (480p DVD x265 HEVC 10bit AAC 5.1 Malayalam Kappa)
d73b440a6207bcd5aa47b666e80451d0c1c04536	326355768	1	DirtyMasseur - Tanya Tate - Dirty Massage Instruction (480p_1000).mp4
d7ef4bd67a3a9bbac105f3635fa9f6117d4ce24b	6206460	22	[waterwheel (Shirota Dai)] Sei ni Mezameta Yuuki Haru (THE IDOLM@STER CINDERELLA GIRLS) [Digital]
d7cdf8903d947dcafed4588eadd63317c0909e54	1824384894	1	T28-496 親の居ない日、僕は姉とむちゃくちゃSEXした。 きみと歩実.mp4
d7b07d62386aa2c18661f4d5cc1a72101c977690	2747770317	440	Lowell Fulson
d7dd144d6e47e3d7d2c4424adb00a36407adfbb6	101185720	1	Porta - En Boca De Tantos - 2008 (Etmusica.com).rar
d71312fbdd1e6fa254b2815a5b2a89e6c018bbbb	2127217203	10	gachi792 by arsenal-fan
d790f3cf57d8e2c6d513da309ce83b80deb376dc	1214901647	1	OHO-009.wmv
d852f95abd67cb3a76ed48b22f4aa40bb1d57653	914426472	1	[LegalPorno] First time double anal for Daniela Ortiz NT048 (27.11.2020).mp4
d822711731b53c44b4bd402ac2e3b406cadeee81	1633680005	1	Anna La psychologue.mp4
d87912837cac3b4bcb6aaff1f840347c30cab382	5540065216	1	190130.올리브.국경없는 포차.에이핑크(보미).1080i.zmzm.ts
d8b256f8d821a9dcddc1c1e05586790675ef0283	3000296063	22	Finding Carter
d8eaecf8be5e5369cba3cff6b0e53d33a7d1918d	55202646	34	Denise Milani - Jaime Hammer - Set 2
d8ff7da8407763062963cfdd71a4c07a3bfeacca	15750227152	10	The.Walking Dead World Beyond S01.720p.Kerob
d86adbb60a4557d28c41e03bc199ac481a4f0cf6	194018452	1	The.Emily.Atack.Show.S01E02.HDTV.x264-DARKFLiX[eztv.re].mkv
d9da103875409b5068c8f0e66eaf7ae69f25be6f	1382740531	136	JFYG108MP4
d9f166eafe36d0a42f9734aba98b74829185eaa0	930644873	97	Led_Zeppelin_-_1969-04-26_-_Smokestack_Lightning_Black_Swan_-_BS-01-1-BS-01-2
d98be36bfd69790c546ec007937f48a4034935b3	33744072	255	Hardcore privete pics for nice hairy Pussy x 255
d95ebfaee7d7a393ec1c7c962e2f27ea5f99b3c5	256460998	1	[APTX4869][CONAN][926][720P][AVC_AAC][CHS](34874695).mp4
da8fd19a9a56792cd6c896082cec370dd66f5926	414312346	1	[FamilyHookUps] Emma Hix fucks her stepbrother after he catches her masturbating (27.11.2020) rq.mp4
da7ac2585980b1c960faf8d82c4fe1e505341a71	1182099835	1	Milena - Wax On Wax Off HD 1080p
da20eab722ae214d634df6c78f5e5257a62b7c8b	2345993078	6	Star Trek 9
daa2ced449255ba05db18afbb42145c66e9aff8d	1367124275	150	WANZ803C
dabf5287ddf95e0aa28befec90fabb4256dbc39b	707483672	1	PBS.America.Wild.and.Wacky.2of6.Monster.Bikes.of.Sturgis.PDTV.x264.AAC.MVGroup.org.mp4
daf5a2b4f0cfe50d0ccccba981f9b46a581360a0	106028032	11	Enya – Dark Sky Island (2015).by iker
da9703249a614e3a4202acde6e1adc3285e932aa	8852078943	21	NikeのＢ@第一会所@0215PublicAgent
dabeb273a4dfc7a281d457cd5a507b0d30bdd9ec	7961804	5	Driver Magician 5.30 incl Keygen [CrackingPatching]
db7054ecd8004388a334c80f7ab71bb389cde00e	4490746308	1	nafjenniferramon_4k.mp4
dbc56857dc3009fb7c452b037a2ed66bca7ade24	16205245331	747	Pitchfork Top 50 Albums of 2010 (FLAC)
db209ec69dc4b2eed8225ec93a2981ad6b64222f	209178150	38	Cascada 3D Special Edition 2010(split tracks+cover)barney's rg
dba976ccfbc277bd616d9ed49e9909d3fa409d32	9578142000	1	Ocean.Predators.3D.(2013).BDRip.[1080p].mkv
dbf21e8838e96f71114c69ce8cdb2d3594e37036	414440580	15	[夜桜字幕组][110102][ちちのや]一緒にHしよっ◆ 二葉勇希編[BIG5+GB]
db2888eb9be9852c342c402ae773577dd8ea153f	398130477	29	Кузнецова Дарья – Я выбираю свободу! [Елена Федорив]
dbc4fb9bc25fa592f8be92e73e087a6fc149d743	1299637051	4	Ever.Night.EP25-26.2018.1080p.WEB-DL.x264.AAC-HQC
db5423a1989754a0613853c5f28cfc44fca3d24b	7790365	5	Ooblets v0.4.6
dba2bcc9565578efca6c4b6d5ff5392d07790450	2491093718	11	(uaoa) Astrud Gilberto Walter Wanderley - A Certain Smile A Certain Sadness
db2df1d87b141a66f217d03a7ba6d816aaa5c95c	42853535	1	Vampirella 015 (2020) (5 covers) (digital) (Son of Ultron-Empire).cbr
db9dadf3ff0a4bca014969d0ad4b7c051620676f	17174724	2	Serious Sam 4 Digital Deluxe Edition (v1.01 HotFixBuild 557352)
db34d5e5a25333c64629c1468412595c384d5774	7789818	5	DmC.Devil.may.Cry-RELOADED
db1156c2fdb8468a7087680fb80ad2571d2056f5	305122927	22	Asian Street meat - Cap
dc10d2b03b07d15b2290d5517ea7658ca1957005	1830086656	1	КВН.Высшая лига. Финал.30.12.2015.SATRip.avi
dc8bca30401e8c7cdbb14da8da0afe6d0b881c39	1361154077	60	Carib-070113-372-HD
dc216d1301e207fd225588b171c3dea36622fa6f	53934072	100	Nextdoor-Models.com_13.04.09.Cherie.07.Pink.1.Piece.XXX.IMAGESET-GAGBALL[rarbg]
dc83a21bd1476eea24b8bd5303bd12b85fb2d27b	341628536	1	[LetsTryAnal] Samantha Rone - Samantha Rone's Anal Sextape (21.04.16) 480p
dca4fe566e0d4f704e0949db3324ff47fbc2a083	5275959259	10	SPND-001
dc0b9982bb1366c8ee092b5e6194b568d6691df7	416324230	1	Madi Collins - Slap Me With Your Cock 112720.mp4
dd15f48107995b0bdb43e4c8cd0477636a374116	4331808768	13	PAPA_MAMAN_LA_BONNE_ET_MOI_1954
dd5b4c7d84ae0d718ae919acf9b44b7a4cd79a33	1337168454	58	BDSR144C
dd0766350eba41f8222c71c914b1bc42f7115f89	1838596265	38	GCF013C
dddce7f43e06b5e231709c8a4d8401f984538091	1072769504	3	Himitsukessha Taka no Tsume (秘密結社 鷹の爪) MOVIE 1-3
dd3d1ad9c071a1d6a082726d8953d4cf67a109e0	580970452	1	[pem] Bakemonogatari 14 [BD 1920x1080 H.264 AAC][UNOFFICIAL][6EDAB501].mkv
ddcc6b254df92581d87afa65a25d3cf4ac80d7e5	3221834034	48	H4610-ori1527-FHD
def9955ee2b18fde5e218f15910a2794c6c04d06	928426756	1	The.Bachelorette.S16E07.WEB.x264-PHOENiX[eztv.re].mkv
de44aae019b01d2f1272ffeaaea192880a637f37	533956898	1	Chad.Duff.and.Naomi.Porter.hardcore.mp4
de39e4aa2659df79310541f19d0e0c90c52be83f	3918604553	1	The.Doll.2016.Pk.WEB-DL.72Op.mkv
dee1ade0ece31933b1cdef48e7ba604107e3b148	868503755	1	www.TamilRockers.gs - End Game (2006)[720p - BDRip - [Tamil + Eng] - x264 - 800MB - ESubs].mkv
dea383b2f990ea6857d1c24abb5eca86bc650355	4509663232	1	The.Naked.Trucker.And.T-Bones.Live.At.The.Troubadour.[DVD].[«Gîzmô»].iso
de7e0ffc920bb5736b5bef6eeb9073d3e0be5f69	9672145183	14	kin8-3319-1080p
de511ed09d39b9f850ad3f204962db3bc98de16c	316435622	11	Obsidian Mantra - 2020 - Minds Led Astray (FLAC)
de75a451c7ce48a7edd0f21075da4625288fc384	397327277	4	MetArtX.20.11.21.Tiny.Tina.Favorite.Movie.2.XXX.1080p.MP4-WRB[rarbg]
def9a32e9ca89a5349ec4ec8a81d9c9f0cf9ac9c	4549965824	14	THE GOOD SON
de36340be2a3b980d9a44f4db05dd9bd2a1d00c6	419396208	1	www.1TamilMV.live - BIGG BOSS (Tamil) S04 DAY 53 HDTV - 480p - AVC - UNTOUCHED - AAC -  399MB.mp4
def64596f5808be99a5533a016a34d3734132ad7	985511640	2	Dreadlands.REPACK-KaOs
de329ef7c9696a37d6a42f8c546eb2f698926fe6	1511756634	172	Дискотека 2013 Dance Club Vol. 121
deceb788b22549e33e9dc4e68ff87d7d116344f8	486124254	2	(中文字幕)纵情欲海 2
de98cc729dfbfb809efac67246fc8762dac698fe	481414333	1	_Fake_Agent_UK__Apr_24__2016_Chelsey_Lanette__Hot_Dutch_Model_Fucked_In_The_Arse__480p.mp4
df888ecc74800e4194bd3046fa9e4521901c7212	2404214817	1	[JAV] [Uncensored] FC2 PPV 1583313 [1080p]
dfb334664a76f7bbd900b83709570a224e438826	677468805	1	[NaughtyBookworms] - Aidra Fox in Naughty Bookworms [NaughtyAmerica] - NEW 18 SEPTEMBER 2014 NEW
df432dad9f888f234fb39131a0c539970f707c3e	1000207278	1	18xgirls - Horny jessy gets some missionary action [1080p].wmv
dfefe4bf33ff37dff41d410cfb89ead3f32a1752	713335292	7	www.Torrenting.com - Madam.Secretary.S04E19.1080p.HEVC.x265-MeGusta
dfe05c5007b7901b5cea19a703b95ed4ceee4e57	27081578758	3	Cosmos-A SpaceTime Odyssey S1 Disc4 2014 Blu-ray Remux AVC FLAC 5.1-AYU2D
df71b1e7ab6b3b60539395c70794cde81782f878	1463836672	2	Tunnel Butts 3
df0d473c56d2ef43a8a21ff46bd009b31e1e96b0	2095159523	9	mird-187
e01d9e8ccacfab7c4ac6589e8748c98047754001	1870557734	38	heyzo_hd_2194
e011bebb3994454932f176d851b439af1877f31a	961092980	37	The Beast (2020) [720p] [WEBRip] [YTS.MX]
e008df56c701bf6e7bf2cfb1cccb89b7edc79a60	1468499968	2	Cliquenficken 2
e0ff94a8403258f61498b3596179bbee06a19a68	26380646	4	Micro Mart UK - Secure Your Data + What To Do When Everything Goes Wrong (22 August 2013)
e0990a1e19e8781d3e09f5d3e946a50a84868170	682555445	2	MomIsHorny.20.03.07.Krissy.Lynn.XXX.1080p.HEVC.x265.PRT
e07ca460baaca60c0b25c18c0835c41570ffba71	387582710	1	Dcs.Legends.of.Tomorrow.1x10.HDTV.Xvid.Mp3.[4].[SBT].avi
e01097c88bc8ffd67bcb432545b460e8a820b881	53412926	3	WhiteCanyon WipeDrive Home 7.0.0.0 + Reg Key
e0eb7d2cade003514fc039d8754084df393955b3	41236893	12	Crucified - Coldest Winter; Darkest Reaches of the Mind (2010)
e05b6a69042d1719c3b624f6d5588c92339c69c0	7961311	5	Wondershare Filmora v9.5.0.20 (x64) + Patch
e0be76f4faced9107294a5bd5e701a5224cdd9d6	1467770880	2	Yesterday.2002.SWESUB.DVDRip.XviD-vipept
e0410516dd367c0932ceef65c47dd52e3ebf09dd	94393834	5	Marco Masini - La Mia Storia Piano E Voce[Nuovo Album]
e107d1f4f4004027320149f398e0b53d24e4c812	7964275	5	Mastercam_X8_Win64_DVD_SSQ
e1f8291ac1c6609ef3ea1bb53502b36f634c701a	1472306896	1	The League of Extraordinary Gentlemen.avi
e1a08768836e117baebe0fe32fa4e4f97e42e525	1513325157	1	[JAV] [Uncensored] 10mu 032310_01 [720p]
e183817a3082e1c069f3b37a30e0511b7d33232f	15387824	2	Zoom
e120d7899f5f004a3bf1ac15616c5c0e68487d37	1804728460	3	RestrainedElegance.2018.09.29.Her.Deepest.Darkest.Desire.Part.Two.XXX.2160p.MP4-hUSHhUSH[rarbg]
e106547b5cee0019479afdf735da87fbcad45140	98030194	46	SuicideGirls.com_15.07.18.Floxy.Comics.Dreams.XXX.iMAGESET-OHRLY[rarbg]
e165c5b846c39e95db825e7929c81d2e65455f73	927085959	1	The Truth Behind Joe Exotic - The Rick Kirkham Story (2020) (1080p AMZN Webrip x265 10bit EAC3 2.0 - HxD) [TAoE].mkv
e13673460401acfa9bf85970133097221f317a87	2682634542	5	女妖.SiREN.2016.1080p.WEB-DL.DD5.1.H264.CHS.ENG-BT4K
e1ba1027db409115ee1bf01bb24c56009afc2687	104694545	12	Павел Кашин-Эра любви
e1d6e153ae86742acf96d2616819a51ea39f1d8c	708016247	2	Shadowless Sword [2005] 720p BRRip Hindi x265 - SSEC
e145a3efca11150cbafd5f628f7048feef5c51d5	553704767	9	C1122003
e1a7f74ba847a135716275c1e0b1890d6e5ff3ee	948513446	1	Alice.mp4
e1646c1d2b6add60d810a01058de2bb7818b6af6	785705883	136	heyzo_hd_1795_full
e234da8766ef8e59b7edabf5d1faf0115f872300	324720910	3	SiriPornstar.14.03.21.Oil.And.Dildo.Fun.PT3.XXX.1080p.WMV.SITC
e2a622754ea5757db0e0f43f7ec31e5070c50705	219720712	1	The.Mandalorian.S02E05.XviD-AFG[eztv.re].avi
e21f1ddd7ceab10d2dab84a2cafb194d4faa7231	786657091	99	Fuel
e27a5453da8d6afe451aecfe788b15e90b025579	4079946817	31	1980 - JSB - Matthaus Passion (J.Baker, D.Fischer-Dieskau, E.Mathis, MBO & Chor – K.Richter) [4LP] {24-96, Rachmaninov}
e2d3a00164f958a53b61701c27a811b01513b197	182234056	17	i_love_italo_disco_[tfile.ru]
e26b21bd6ed62904cfae72c9c7ccd3ab99b76598	137463116	32	Buddha-bar 5 2CD (2003) World
e20642f2fe92a9afef31427d2f46302bbddd40a6	734078160	3	4f6ee19ff5929afd4c414feb
e22011f6636e1794a98dde5c903f0257b8c96bb6	39606515	1	Die Entscheidung.rar
e20349254b7e1628594afcb363177208601d9fe4	2410510408	4	MUM-147
e30ece66c937ebd685b0f57cdf869ddec452f409	2832696639	1	EA - 2015-04-03 - Valentina Nappi, Karlee Grey - All Day Anal - Sc.1.mp4
e34d6f707114fa41624452b7ab934fa8ae06230f	13336365347	2602	The Twist
e38af22b0b6227eda92ddc1ffefc332b0c73451d	1149044736	1	I slony byvajut neverny 1976.DVDRip.avi
e3ba3d152e13a69830bc931b307c383ee7916446	1543152207	7	www.SceneTime.com - The.Alienist.S01E10.1080p.WEBRip.x264-TBS
e3e160fa46d452ac3f291ba5b6d452b8dc1ca156	906653659	105	Y10-14-4
e304dd974f3d704d7e680f8aca043df7825b3d59	10350108183	6	Blacklist (Season 04) LostFilm 720
e3a1490731b1efeea214c0ee5c0edb51788aa463	1912191961	6	[thz.la]091716-259-carib-1080p
e390bd1d7887b20ad3ca3ea6109ec7fa20d77068	65588521	1	[161109]高垣彩陽 3rd アルバム「melodia 3」[320K].rar
e3a23cb2657a264a84dd50065e7a423a2d5ea66b	5888950771	1	Toy Story 4 [2019][4K][HEVC10bits].mkv
e36cb568d6f48fad6b1a39b0ffccc25ee6d94abd	2698147284	26	SSNI-894
e321add341fdb120703b6470fd169c50ea448eec	691398611	31	The Beatles - From UK With Love-CD
e367b59938baeb202fbbef968dc01411e5f966fd	1722619906	3	Chicken Little 720p_ Mahven
e4e93257d2e650fe8eb38cf604e4ea2567159947	1691763051	6	Heyzo-2415-HD
e4352d8ec41dbdf40f0ff7d939f355c5faba7f60	2971406071	1	TeenBFF.16.04.08.Passion-HD.16.04.07.Lily.Rader.And.Piper.Perri.Spring.Break.Threesome.XXX.1080p.MP4-KTR
e4480f4f891016ddcbc91956f8499e6bed031493	415332243	1	[Pandoratv-raws] Doraemon (2005) 2005.04.29 - (3) (EX-CS1 1280x720) .mp4
e42ab95c843cc205af0a9466613cd2dc82e4f3b0	387013069	2	[18+] Two Sisters 2 (2017) HDRip x264 AAC
e53ae0466e1989502617a090d2851804ed5ea617	535359067	1	17- 2009.12.12.chapz.AdrNoB.Mirella.Bristol.mp4
e585ebf9c2728222f85e6e2c27e5200105e0131d	388535383	1	The Elder Scrolls V Skyrim [MAC]
e576415b6c94b3d5ecf02f526fe49730e501c48f	432300209	1	我们这一天.This.Is.Us.S03E12.720p-天天美剧字幕组.mp4
e525903983480f9b90a616412049faa7088a5fbf	2979029209	1	iMPACT.Wrestling.2020.11.17.720p.HDTV.x264-NWCHD.mp4
e5f37a416cf934976a0ce9662f9cb2de8c373cc5	840259502	3	ExploitedCollegeGirls.19.08.15.Shey.Holmes.XXX.720p.HEVC.x265.PRT
e53e4f8a365266a186186668bd4eed81fdf326c9	435987640	1	[Brazzers] Baby Got Boobs Amia Miley & Jordan Ash (She Maid Me Cum) [.mp4]
e6ff398642026d7fc61d897bae3e21e1c454040a	386445271	6	Keith Jarrett - Three Great Concerts
e65294f2c7f7354c1374b064b2e334901d218320	478721937	1	[DirtyMasseur] Roxy Risingstar - Nuru Nymph 2 (27.11.2020) rq.mp4
e61d973d8c8ff5e66bea78d14e21bacdf276053a	7790332	5	Raji An Ancient Epic-CODEX
e613a6ecf6a1a401c2f00669696e0b4c7f12f63c	1135579576	8	olo@SIS001@mird-183
e6b122cc67a6fbe034df0b9ef92bd09a966c9c4b	2848690425	2	WoodmanCastingX.20.11.20.Nelly.Kent.Another.Day.Another.Man.XXX.1080p.MP4-XXX[XvX]
e6f951d6f16fb1e65e33b33a2e44f36d51d9316e	2170388942	10	梦幻天堂·龙网(killman.net).720p.色迷睡美人.陪睡美人
e6349954cdae96f98db6c50fcfb2756fa6950a78	37181839	104	(C59) [Hikagemono (Hikage Tetsuo)] Tamanegibatake 1+2+
e630e1c16425d247490bc0ef37ebe53be1a35b7f	9448495866	9	第一會所新片@SIS001@(PRESTIGE)(ABP-509)1VS1【演技一切無し】本能剥き出しタイマン4本番_ACT
e6581a6f2fe3a6800110d389ea53486867543b86	665932843	1	Straitened Times Version 0.9.1.rar
e69c59de57bac88d870457708658cde7016614ae	22039500	4	Green Kitchen Travels Healthy vegetarian food inspired by our adventures
e6c74ff6dad729f2973b23c2dee3211b87a90ad6	657825991	1	i-wanna-feel-dirty.mp4
e6fdcdbf3de1e5b37435a90da3d7d522ab1ba7ed	789167966	47	051014_807-1pon
e615fe12a1e288548e83134ce1c78f5236a1e3ff	7551187607	1	CJOD-261.mp4
e7b3c7e50301ecb574053a43edde0669df932f13	186993016	3	乡下丰满小胖妹和男友情趣大床房激情啪啪,跪着长时间后入,膝盖都红了
e76e4630d986744c267499f3bff6ea1968b6b43e	687256928	35	091914-693
e701302d599487238f2897a0bfe0520fe0003a6b	184372540	12	2006 - Aurora Borealis
e8e62f3e0049d9b51f5cb805a07a18b4c8c2c420	3379996	1	Буццати. Татарская пустыня. Загадка старого леса.fb2
e8da4b0b672822572669386ded95b5ce94f1895b	458923618	1	[AngelaWhite] 118 Angela White X Markus Dupree [2016 , SiteRip]
e8b028f1f558264c911ac95a540672aa3adc2f6e	699678856	1	Wendy O Williams And The Plasmatics - 10 Years Of Revolution Rock And Roll.avi
e899758d2cb50dc2884d03623db9b4ef43aded74	480377763	1	LegalPorno - Monika Fox - GL340 112620.mp4
e84b0089944ad95053bf3544731705da05cb707e	1204016	1	Green Darkness - Anya Seton
e88a6e1b6a750c71c2de4704f2e4d646a0a4e787	403585303	5	[ www.Torrenting.com ] - 8.Out.Of.10.Cats.S15E08.720p.HDTV.x264-TLA
e8fcebdb83d3c8593cae1d8c982f925ad7b22b91	517903022	1	[www.domp4.com]谍海追踪第24集.HD1080p.国语中字.mp4
e810ceff4d82ed72303b372b74481ee5a964acbe	1255473	3	No Naughties Sweet treats without sugar, wheat, gluten and yeast
e83790b2962474ecc7018d82dccdf016a287e4c4	1082013691	17	g17
e83d958df9075d3083d36f69745d920901e3ccca	730951471	95	C0930-ki180410
e883db81a3736ce30258a82d720a085babeadffe	1077799949	1	cake.boss.s02e14.cars.collapse.and.couture.720p.web.x264-apricity[eztv].mkv
e92cb925360977493b3f51acac404bd7d9c4166c	364861472	1	(同人ゲーム) [2020-09-15][RJ298932][さきゅばすの日記] サキュバスアフェクション ～SuccubusAffection～ 【中国簡体字・繁体字版】.rar
e95e4491abe0bef990025dff2144d3dea4bf8a6d	28595026	2	Edwin Bryant - The Quest for the Origins of Vedic Culture (pdf)
e9b0ecaacda10608a6c29fc2f1191f0b3070da95	723466539	2	The.Purge.2.DvD-Rip.JayBob.HD
ead750d40277f3d7cf04f06f4a7383218b9dc112	1018318395	5	Delusional.XXX.720p.WEBRiP.MP4-GUSH
ea925d456765869b430e85fc6990dc3208751437	333466432	16	Pet Shop Boys - Super (2016) [FLAC]
eaf3ff0a9c6611fb2118510417aa3f2316898754	450794562	2	빅 스카이 시즌1 S01E01
ea47a2a0ef94dfa3faded386aa54985eb50f9b60	49456166	1	246783041f168a4e7978c46414d12b80
eac3d38a097d706723579de03a05935e0703a36c	3197757440	1	Windows 10 LTSC v1809 3in1 Fr x64 (9 Oct. 2018).iso
eacdc8c44290ff69e906105b09eb488396f38181	122854059	20	Hank Marvin - Hank (2014)
ea5ee4624b3ba729d5873e2962311abdda0d09b5	28183812	33	Y3DF - Y3DFBOOK
eac3154b27310da7ed3013d7daabbce5d11281c0	649853	3	Raymond Chandler - Zegnaj Laleczko
ea41fac14067c063dea1884cdf110b8e7ba60adc	3737594768	6	[电影天堂www.dytt89.com]盗墓笔记重启之极海听雷01-06集
eacfcaeeff7d5c858ee8aa9c4748143b7a1623de	7961768	5	WinToUSB 5.6 (All Editions) + Activator - [haxNode]
eaa19f1153354a978f11e7b7032238fb194ca1fd	2193532836	1	Lo.imposible.2012.BDRip.Rus.Eng.IRONCLUB.avi
eb99d3e0ac212dde489e0a91b528db337189ab28	157113101	1	[CreampieThais] Tai (18yo) - Thai teen with shaved pussy having sex.wmv
eb92a096aefc022f0295136f1df90401f776cc51	9879346	1	KSHMR - Megalodon (Original Mix).mp3
eb25501c43c8269a54567734c090a6b7c2e8c573	1892265452	2	(1pondo)(032115_049)ときめき～JKコスしちゃった～辻井ゆう
eb1aceedcc2dc4461ea90a632f002b0166a9838b	497076056	1	Czech Casting - Anna (0133)-720p.mp4
eb2cc5d0def2e8280c646138c9b3f2d1719d568d	2125549113	1	1pondo_070116_331.mp4
ebebd2b62e0f822bbc16813ac525db8dfca33ea6	499059256	4	Soulfly - Soulfly (1998) [EAC-FLAC]
ece72c89bd83fc531b152670d6ed890f35b6dd0e	7446948652	1	2020.11.25_UCL_2020.21_R.04_G.D_Liverpool_vs_Atalanta_[rgfootball.net]_1080i_RUS.ts
ec12d24394705fdefba429f6e94f748853ec6b2e	7138336957	6	Curtains.1983.1080p.BluRay.x264-TOPCAT[rarbg]
ecd226e95fbc1cfb71a665efa49f743e5a5dcd33	1319236060	3	GVG-345
ec6799cdf092545a15ba79b7a6ef11fa4a48a636	614010815	106	O2020-11-24-01
ec773c00117c99133ee38259a03c35ea1c2d9a53	338851944	2	PetiteHDPorn.19.12.13.Kiara.Cole.My.Lil.Sis.Can.Ride.My.Bike.And.My.Cock.XXX.720p.WEB.x264-GalaXXXy[XvX]
ec266d5a1fedcce1333525d9eff774e86f8f779c	700758557	26	2020-11-26-1-4
ed867884c88d2972c95b25aa6c8fe33401451f36	7790741	5	Blasphemous-HOODLUM
ed991c775e0f7fc3426d8aa226e98f75cc1b5051	1463726534	3	Lesbian.Beauty.Salon.DVDRip.XviD.JAV.Uncensored-JapanX - [ www.TorrentDay.com ]
ed14ba0ac36461693749f1f284271a5028fae45a	586485858	7	olo@SIS001@4-cw3d2dbd-15-ririsu-ayaka-3d-catwalk-poison-vol-65_sh
ed25d9d7a76bce8d75ad3ff6badde3198fed7d5c	6063126	1	01 Pop Danthology 2015 (Part 1).mp3
ed98360b751ef57536bd031464487d56f81dfb64	837152768	13	身材娇小美丽教师遭学生轮奸被干到喷水
edbcede26f886582e09441f316c634d938f99e65	925538458	4	AllOver30.19.10.11.Layden.Love.Ladies.With.Toys.XXX.1080p.MP4-KTR[rarbg]
ed9b12ac156866b860f24de990a1575d771df380	6836860928	27	Classic Cuts
ee2b44856696b0fd22ed96f829976b5e891b7d00	592009750	1	Stella Delacroix - Hot French Blonde Dp.1280x720.mp4
ee2ce2415522aeacc91b94d8da61c0561eb6ff0d	141697646	25	Soft Piano Music for Quietness Relaxing. Piano Songs for Chill Out (2017)
eeb5a280f91c031ec9891e9930d5db8673b63927	695123101	1	Ch4.Restoration.Man.Series.2.07of16.Water.Tower.Settle.540p.DVDRip.x264.AAC.MVGroup.org.mp4
ee470c442d8360a8d38e698063b4cd56c6b78035	330651595	1	[JAV] [Uncensored] MD [720p]
ee4358b78021015fd820226bb73bcd1a4d79986c	2720992	1	7670204.mp3
eefea5fd0732656689029c907c83bb39f631e67b	3836784447	38	JNC1439c
eeb355a32b169878b50d137550a70b3dd1dbee88	750176040	3	[ www.torrenting.com ] - The.Voice.UK.S04E04.HDTV.XviD-AFG
eeac020b8a26bf0a25cd6196835e8f6bd0f90494	236276088	3	颜值不错大奶短发少妇自慰秀性感白色丝袜沙发上自慰扣逼
efe5d94858cb0accd9b060cc0192c392f8e7a511	1058362493	7	www.SceneTime.com - Care.Bears.and.Cousins.S01E01.1080p.WEB.x264-MEMENTO
ef49bbf2811ede1a3a9326bbfe27988a55303155	899063790	1	Extremely Loud and Incredibly Close 2011 720p Esub BluRay Dual Audio English Hindi GOPISAHI.mkv
ef37a65c5a36bbdfb17ef97e0aa7e32fc8b1ac6e	7966254	1	771d83d9365b9d4418d2fc44d534af20
ef861da1904eeb6c8c49723b7a137b22e9bce570	733307676	1	TMNT.2007.FRENCH.BRRIP.www.lien-torrent.com.avi
efd9c9ff2776ea4c2fd2ffd2f6a8fd16b8bcbdaa	37571301	141	PervsOnPatrol Bella Rose Bad Bridesmaid S Revenge Facial - 2000px - 137x
ef2fb4109e274b987b111952f4946aa246782dc9	184895864	3	91新人huangpp112处女作=一夜女友之97年杭州大二175的模特女神女神看似高冷害羞,内心却十分火热主动
ef21dc42c63159e9f5cfc3ef069ee9e1175931d0	1036115004	1	WWE.Friday.Night.Smackdown.2014.01.17.HDTV.x264-RTW.mp4
f0c8a57444ae55fe355e01a167dc576cfef95104	17174688	2	The Talos Principle Gold Edition (v554784 + All DLCs)
f0a86bb24430bcad7f3b8dc7c81ff459ea15d310	129314200	13	@TT_ไผ่ พงศธร _ ต่าย อรทัย ชุดพิเศษ มิตรภาพ (2020)_320Kbps
f0cefa4b1a95d32075b4fc475852b8159b754a1e	1337073399	58	MCSR115C
f07259dcbba5517adc295460b464d7b66b6d092e	965208900	3	Battle Scars (2020) 720p WEBRip x264 Eng Subs [Dual Audio] [Hindi DD 2.0 - English 2.0]
f0c3e1b6e7e9ca11681741fde301ac33e587d143	223478053	1	[21EroticAnal] Annie Wolf - Catching the Wolf (11.03.2017) rq.mp4
f0be13955cb86f115573dd156d3d6c22255a278a	7495173352	5	Facing.Evil.S01.1080p.AMZN.WEBRip.DDP2.0.x264-SiGMA[rartv]
f07f432da48bd30366c76cb11afdb521d909dca1	1657514850	11	Asakura yuu 여고 원조교제 시리즈 모음 (얼짱 AV배우 아사쿠라 유우)
f04c24110d08337eb86b613a8c67220d0ae673a5	900388037	5	越南姐妹双女战道具自慰互插，翘屁股震动棒插入带上假屌抽插啪啪
f0a717ce9ec2f9a0de24c5d9dcb2fd993e32a2d3	621807834	6	www.SceneTime.com - Virgin River S02E01 XviD-AFG
f00b0968772901147080b34925f0c7785b66a8df	15447694808	209	【瑞客论坛 www.ruike1.com】Convex Optimization 凸优化2020春季学期
f03be57145dbdcdd16845d47cd9404cf8c9219e2	169151747	6	Sony Vegas Pro 9.0_х64
f0e718917474a578ad46a35dd1f38be4a17781e8	338867613	2	ATKGirlfriends.20.10.19.Riley.Star.Virtual.Date.XXX.720p.WEB.x264-GalaXXXy[XvX]
f066669f96a18b35afa22671dce7355e832c30f7	87181388	23	[TNTTORRENT.INFO] Edyta Bartosiewicz - Najpiekniejsze Nieznane Piosenki (2010) by korniaczek
f16341f02453b9de65b083804b37ac4ffaf83b15	5511679	1	Stackowiak R., Licht A., Mantha V. - Big Data and The Internet of Things Enterprise Information Architecture for A New Age - 2015.pdf
f1f012213f1dc326dcbc55e41b97993d8393d621	143365657	1	(ゲームCG) [Akari Blast!] 1room -家出少女-.zip
f10bd61f8d3562789e186244299d1dac88e77547	251738235	6	www.SceneTime.com - The Goldbergs 2013 S08E06 XviD-AFG
f13d0d10f6042f6071bfc8886acd113b55e00553	6851924306	26	Ninja Hattori returnes S1
f1214788d6556624568da430ed5fe1cd371bc05c	6317594640	7	God of War HD NPUA80490 PSN US
f184bb0b718c9ccbb51ae5ee9d18cd769448c261	12115982	1	[tropical pine! (Shimoneta)] Remocon (Danganronpa 2) [English] {Hennojin} [Digital].zip
f18274ab733b4e160656c62f39196b2624572965	406899135	6	www.SceneTime.com - Virgin River S02E10 XviD-AFG
f192fb2a1f027ab84c92b890b43b7ed82785886d	818062	1	Slaughter, Karin - Sabes quien es [44852] (r1.3).epub
f1afa8726e9bcf8ea629d79fceb1b5deea675678	1862097	2	The Silmarillion
f12e93661c2e62480cf5f38d2e2185c09f361b8f	3233474142	1	Проклятое дитя.1982.BDRip.720p by msltel.mkv
f12c53d991983f2c673c5ea3eb376fa31615d59a	118357298971	87	World Extreme Cagefighting
f1506639375c6b60d05d21c4142304d3124d8e9c	427848346	5	Blackish.S07E05.720p.WEB.h264-KOGi[rarbg]
f1930726d21f7b4b7f87427acbab9ef8bec2eaba	354496833	1	9ZD[不咕鸟字幕组] 寝取られ秋葉様、放課後お散歩編.zip
f17115a399620a23e8f7468e225e65cdd893c9dc	122304131	9	Schnellertollermeier - 2015 - X
f2022b4e2e56ab64ddc573e1ab3d676f1eb99b0b	1864435275	2	Private.20.11.27.Little.Caprice.Massage.And.Sex.XXX.1080p.MP4-WRB[XvX]
f23f19a0309032828e200e3a99e18ca0fa29535d	214140428	20	2003. Eubie Blake - Memories Of You
f219d7c6eb9712f4303011e66571c6a3dffd1b94	6357335	1	0e635749e2783527deed85f03c887e39
f26300070bf591207ff395000b6fd5c75f79c7a1	17174707	2	Voodooshield Pro 6.00 incl Activator
f243ba2004c0b6c31108ef8977add7ca757d94aa	338575360	1	CHP.25.11.2020.[RiperAM].avi
f245cb644f7774f47c0b1fecfef37be35cc247ab	1454656433	3	Inside.The.Orient.4.XXX.DVDRip.XviD-Pr0nStarS
f29917792c4d4bfb74b1d1a3a8680445a0fc6fe6	1537800	6	The Awakening By Nicole R. Taylor
f2a03b07f76c1f1d4a4ae9b5ac6a8e9ac35d6cfd	298252253	1	Brute Force (2018) (Digital) (Zone-Empire).cbr
f3b439e66a604a55991805944ab694c899d36f10	12194088	1	The Body Sculpting Bible for Women, Thir - Villepigue, James.mobi
f34717d8400784240dfb1d4a19bcd20f7948d616	995451286	2	Famous.in.Love.S01E04.Prelude.to.a.Diss.720p.FREE.WEBRip.AAC2.0.x264-BTW[rarbg]
f39f653f8ff391cb65ce49c9af27b98bebe0f38d	253398943	16	Buddy Guy & Junior Wells - 1968-07-28 Newport Folk Festival, RI (SBD-FLAC)
f37a63c3d9d5e4ca85fce522f3f0b6cb29708692	550682770	1	Kyler Quinn Fucks And Squirts 11.26.20.mp4
f3b93638115b5bc6c0951437219326cb7f63a694	4209203337	2	The.Imaginarium.of.Doctor.Parnassus.2010.R5.LiNE.AC3-5.1.DVD5.NL.SUBS.AC3-GURU
f37712977202cffd4c9db112e9e5cafec276ea9a	127786776	21	Various Artists - Exotic Dance Songs Vol.10
f3b8236c917d250187be1dfe5d61e6fc7fb45fae	5861516	26	(C89) [Crea-Holic (Toshihiro)] Mattaku, Shiryoutsukai wa Saikou da ze! (Sennen Sensou Aigis)
f3bf9829bb2f4c7810616cb2d6d69311c2773dbe	779069822	1	Lucy Lenore - Filling The Cups Of Her 36J Bra.mp4
f36780af5b9e2c53ea730a2a69fba0e2c331d6fa	910827567	1	tagteamtranny-michelly-nicolly-riberio.wmv
f31f2371f7ba22495aa089fbf79720ab541c48fd	1786773595	31	Caribbean-021120-001-HD
f41ac42149dd39fc19d2a9eba4fb8d429ef2c945	3916374	1	Hanna Krall - Zdążyć przed Panem Bogiem. Hipnoza. Biała Maria.rar
f46575dad3e39cf75329870cf3419fa3e06c644a	939473026	1	MotoGp - Malesia.avi
f4b634943be72763f64f80e6b1f96494f7b7109c	22358134991	5	American.Epic.S01.1080p.AMZN.WEBRip.DDP2.0.x264-SiGMA[rartv]
f4df8f7adaf22ca0653d2da6618e42e1e6e87e9c	187373771	126	Twistys.14.05.01.Dillion.Harper.Dillion.In.Her.Daisy.Dukes.XXX.IMAGESET.FuGLi
f4313f02a666fd4a72cb007bbdd14a0b0cc8c1f0	890078389	3	VENU-585
f4c94f3aa95b6248d2a19a80057702556c5e99fb	1052654704	1	Police.Interceptors.S18E07.XviD-AFG[eztv.re].avi
f52cb0ac031a32428560e4802328a77ea6264c55	328213946	33	Metal Goes Acoustic
f5bf77d80d5ceb6fa70289fd983b2fcd237f2070	585702660	16	The.Middle.S01E11.720p.HDTV.x264-CTU - [ www.torrentday.com ]
f59f6710b966473fcfb6c0010f681ec41ab92ab3	112658282	3	PutaLocura.20.10.14.Mia.Black.XXX.SD.MP4-KLEENEX
f69453709041b95b56f7e08a5a24634108375f25	279716610	1	Dragoneer's Aria.cso
f6ae9c8ef8151011e5ca840b88577e317ad35d94	1273618800	10	olo@SIS001@1127-精品合集-05
f601041fcaf05f6257e54ed6c3ae712668d31497	4788559	1	Kryminalny Wrocław - M.Guzowska, A.Krawczyk, A.Michalewska.zip
f68212cdd924b8d34721337543dfe9ed013d78b0	107509285	16	Tape Five - Circus Maximus (2015)
f6cfb25fc7e210b180a4edee96cb366eabc37ab8	742656354	5	[AgusiQ-TorrentS.pl] Bleach.2018.PL-KiT [AgusiQ]
f69eff92d11ee9a591a19eab879aa707fa81ffbc	259519333	6	www.SceneTime.com - The Real Housewives of Salt Lake City S01E03 Everybody Need
f751cc155c5669c2e634ca036a401522e3be7f1a	1631730211	1	True.Milf.5.Cast.India.Summer.Ryan.Conner.Richelle.Ryan.Kit.Mercer.MILF.bigtits.bigass.black.anal.mp4
f7450ec2a1bbeb451a299f3435fa814ea07b331e	2483513731	47	1pondo-022015_031-FHD
f76db7ae7fd281f9b3ccf395dbd8d80d574e0324	1462556963	4	1064517@ONED-672
f7a9de46769e4a57df2b3d6d5a71cb9a39699e66	791181685	1	Adobe Photoshop CS6 14.1 Mac OSX (Patched)
f7b435d327f22eb4295fb18e939b7a06bcdf05dd	2531431	3	mywifi
f8faefd00787ad3fb301a2da024200fc9e596b0a	352196166	4	[ www.Torrenting.com ] - Copper.S02E04.HDTV.x264-2HD
f8c57a391576c9bfce2c6b7613102481d841f867	49031805205	117	In The Crack Set #219 - #200
f818d3ce6cd98954ecf660d09793258c1f863974	1439932136	13	GBM-0235 老祖母性的日本老人
f834cb4a07eed14e5b14f683671956d0cb5cb395	2806994177	4	GHMT16
f85045b96175f583c5ffbf46d45940c78d466baa	266371479	1	[IHaveAWife] London Keyes (18419 - August 11, 2014).mp4
f849a79166ec398b4b4c472dcd99bba48114cab0	546832446	10	TVBOXNOW 孩子的小宇宙
f8e464f3f75bc9d7137737b76be60bc718122cbc	17174725	2	Mastercam 2021 v23.0.21317.0 Update 2 incl Crack
f87dd70db41532732566ef6b9a0133785b8e10d7	1457219068	8	KungFu_Shadow_Hunters_part1and2
f92b42e600e6b9fece051c11e65d12f18fee7b20	2262702	1	e935c32590d0d14b73213f8d8dd1f805
f9313e11a16bb7274e8e7335014fd09100e61e24	872016810	1	Bellator.218.480p.x264-mSD[eztv].mkv
f9ff399075da80a346a09ca1191c385f3a79df38	872459358	1	LegalPorno - Monika Fox 4on1 Anal, DAP - 112620.mp4
f9c21e6df8129ca4321448ce344e8491ac3dc742	27748881	2	Fadeev (BVL)
f924974d4b7cec5afdf7e2ab95b1b8bfcf8cf95a	749397715	13	VA - Maxidance 2 (1997)
f9ec2a81d69448b60e26895d1403a99fd06f209e	494442755	6	www.SceneTime.com - The Young and the Restless S48E46 XviD-AFG
f94041ea14d54629885cd97d652fdac23c9160e3	1174762881	25	heyzo_hd_1846_full
f9be64ab852c4e0c092169291c4842dc8ea119e8	3721364	61	stereopary[tfile.ru]
fa98d6a949383de4eba563340120cbd5e04b0102	7962375	5	Solid Converter PDF 10.1.11064.4304 incl Keygen
fa821e7f05430f0c8924049c9bfe83d8ef1770c1	7961910	5	FastStone Capture 9.3 + Portable Screen Recorder
faefdc270710bc7923878eda9dd3b29179970bc3	1078900211	1	Sex With Lovely Chick Hollie Mack.1080.mp4
fa7da3ba8784064c0f6901b4d77b38860e3514d6	1252592088	1	Rabbit Digital Video - Insaziabile Troia
fa9162be4144075123e775357a777ed10670e6f2	1529259391	1	Nineteen and Nasty.mp4
fb039a99a8feb8456e66cb25eb4d73037749e34c	67366695	1	youtube_v2--YDdvQ93GEI
fb61d46a1c62fa158c19b22b099b69f3b949a665	388605011	3	GirlsWay.19.09.01.Casey.Calvert.Kira.Noir.And.Mackenzie.Moss.The.Hands-On.Approach.XXX.720p.HEVC.x265.PRT
fbe066d012e8f1144fbfc15424f1b2b0528d9b6d	752391739	1	RWBY.S02E01.Best.Day.Ever.1080p.BluRay.x264-orangebirds
fb164aadbddb020decac1ec57da680d63dd9e2d7	7669510144	29	Ma Mere
fb8192468583521fca3a0edc8101981f9e24e2ef	977672369	1	[모에-Raws] Yu-Gi-Oh! VRAINS #10 (TVh 1280x720 x264 AAC).mp4
fb15692d89f93676edeaeefca6ed074aba6528fd	2161357348	1	AssholeFever.19.09.21.Mary.Rock.Firm.And.Flirty.XXX.1080p.MP4-KTR[N1C]
fc5732309d99bfe2855acdc05685b392be3c210a	36329399	1	[Jack to Nicholson (NoriPachi)] YamiPara! Dai 2-dan [Digital] [Korean] [팀 아동복지부].zip
fcaca7b38010bb2657baf28d3c303412279e7d3a	118036967	12	[New Age] AOMUSIC - Hokulea 2013 (By Jamal The Moroccan)
fc59fe44c40c0847f8b7bb8596bce829cd099358	99891120	15	Enemy.at.the.Gates.1CD.2001.OST.[WmC]
fca5779225500e066904ddec68bbc15882bdb383	113868000	1	[GJM] Space Patrol Luluco - 07 [B2865494].mkv
fcbae40e8dbfc129c88869aea91a63d6807abe96	2187795590	11	C-O.Segemyhr.S01.SWEDISH.DVDRip-Sniff
fcbe48a4e27dd3440c215f5e7a8d8536462eb4cf	115617800	174	[Anthology(アンソロジー)]Ero Shota 11 Wasou x Otokonoko(えろ☆しょた11 和装×男の子)
fcc37c2653c8206d2c41ceabede034aa2bd4b1df	1766968575	2	Downhill.2020.1080p.CZ.SUB.WEBRip.x264-RARBG
fc65ada14e0d68a41e6e8cb7a28e30c8ced6bef6	3993569013	2	Hunting.ISIS.S01E04.The.Battle.for.Mosul.1080p.AMZN.WEBRip.DDP2.0.x264-TrollHD[rarbg]
fd91ead4f5e442cb671ee8e182b9c7ec438dc600	7790308	5	Freedom Fighters (2020) (Build 5493245)
fde0819780ae9300d39c5bb403173706d1689633	1384377568	3	Avengers Infinity War
fd772dd30075b69f2e0f1cb46b08c84a1de68f37	239597973	3	Tzimon Barto,London Philharmonic, Christoph Eschenbach - Rachmaninov Piano Concerto No.3 & Bartok Piano Concerto No.2
fd156ca251bc393cff57f173cb76244cbbdf6f3e	1592240514	9	第一會所新片@SIS001@(Akibahonpo)(2780)雑誌で見つけてリクエストいっぱいの娘_りさ
fd67d4e66aff113d95603f9c82b12fe3e2454e6b	8536114263	1	The Don 2006.1080p.AMZN.WeB.DL.AVC.DDP.2.0.DusIcTv.mkv
fd4605da613acde734fc6ae7e66b3d17d65cdc7e	1174274063	3	WowPorn.16.11.09.Kika.A.Girl.With.An.Appetite.XXX.1080p.MP4-KTR[rarbg]
fe7eb721cb33f223874db81b70145792e5060200	283648873	1	FuckStudies Alex Diaz 720p HEVC x265 piemonster.mkv
fed9d1de8ce6d9ce447a7508e185a4847650f83e	5665510	20	[Kaden Ryohanten Seijin Corner] Kugi no Miko
fe70c55d4a9648e26621443fbd1fffa625e4644b	1397886311	1	나는 차였어-겨울이야기.E01.201126.720p-NEXT.mp4
fec7db3f293883360c70a4c770381834ac47d85a	23993667244	199	DocSap.TLOTWW.[bd25]
fe63b98d706cae7cab3326c5ffbadc6a59ae26e2	21424	1	138ff4f7-e381-4594-bbe2-cb68009b2501
ff2d0b878ec02425451fdf606a52b20e1ca0281f	157154295	1	Jujutsu.Kaisen.S01E06.VOSTFR.1080p.WEBRiP.x265-KAF.mkv
ffab8dd416373164348e6e5a0013212bfea7dd72	212892840	1	The_Lords_of_the_Earth_Flame_v1.0.3_setup.exe
ff2d0d8efd498040844f2bddc6dfd0294f5eecc9	524928174	1	Amateur.Girls.With.Hairy.Pussies.1.XXX
ffd320691632f41fa52a0d6e83e4070f9349dcca	2402574223	1	SCOP-133.mp4
ffde7016293c5ee4eed9c2bc304b3eb8c6f4b5df	2653505950	1	HJMO-358 STAY RESISTANT BALL BOUND RACE.mp4
ffeda2306e4ff2c045643f7e3b3f1667e31932f6	558024342	1	[ FreeCourseWeb.com ] Lynda - Finding Your Idea Hook.zip
