0054bab415065af6a82a2a3b096aaef7c712a620	3033426400	14	NASS-144[seducer(seducer-)]
006e23117095e99145ccf4577d70a9a765181997	188806838	27	JAZZFM2010
00c80ed1a1c6fed0d0c69468d5d10816330631df	243332073	14	(2020) Hairetis Harper - Draft [FLAC]
016871784403a3639f9e272a219296ee64fa0e1f	801744	1	Propellerhead Recycle V2 2 3 Full Win Uget Deepstatus - Downloader.exe
018e1f9ff8eeaf2d2769bc9ca416543fea791d23	161290322	123	情侣验证
019c55b97d0ea490bd32847f39083be9c02efa28	1223229502	21	Eric Clapton - Phoenix, AZ 2019-09-14 (24-48)
012fff5ab94ec999c2c436ab73aa53cffc1f9e5a	86858094	11	Pet Shop Boys - Love Etc (Remix)
012349c45aa6184fdd2c19b3f630cddeb7cf9f67	9849872	1	Шальная старость (Людмила Кравцова).avi
0143e78f2b055f234b61e4452c5874e0aa01b295	191410526	1	[HorribleSubs] Assassination Classroom - 02 [480p].mkv
0146334c6fc723df8ba83e7014bd82014c75ebc8	530579649	7	O19
020297f4b108b65046883039cac11d766cce4100	72777002	148	Dascomi Vol 11 [Digital]
027a19ed5a52a4dd8194002f62aa9dd14b5d7c0e	553250524	44	Lang Lang - The Romance of Rachmaninov (2014) [FLAC]
0201e25d8f789e45c395e27c81b2f801e978922b	718338048	1	Rogue.DVDRip.XviD.avi
020670defc612d8688b666bdb3aa388223a53e51	66364427	20	Hayseed Dixie
02ed56a8f62cf93495bab7d145c8f7e957088a6a	1137875618	8	Black Lightning 2009. DVDRiP.XVID-MAGNET [NO-RAR] - [ www.torrentday.com ]
0263203390c37447bda4fff480b1fc787d4faa9c	3231210153	5	Dancing With Pornstars
02c839d7f8cac9e6733f98734605d90d67cd31a9	691036267	1	iZotope - Music Production Bundle 2 MacOs
024991eede3c4935b77067d768049f021eab88c5	23043506292	45	[星球大战1-6]Star War.1977-2005.MiniBD.720p.x264.2Audio.AC3-CnSCG
03543e03a7869dc1679b78013c15bbbbdae66917	1779325415	5	C0506001 (20)
032546a5bc229b9f6071ee44efb82eb41e1ff51c	119769010	19	Mina - 12 (American Song Book) 2012 (H33T)
03d3c0636437d71b9e22c869ebd8581d0f628d66	221435431	7	www.Torrenting.com - Grace.and.Frankie.S04E12.WEBRip.x264-STRiFE
03f4b7555346d78df1f9b15e6535aa2ecc2ac36d	28238821	1	TG799vacXtream_18.1.0297-1321001-20191002151007_official_closed.rbi
03c171dee5f8ce5b5248b7fffef63f0c3c70c689	1011089570	15	黑暗之殇@www.heian2.info@韓國成人節目 Boja live Tv show
035cecdcdf9b73a0dadd0735e9ba2ee61b34b796	145614317	4	Soda ‎– Summer Delight (CD, Maxi-Single) - 1999
0342a8d0f895716935f02b1f89d06e1f0ab0add3	3812875493	2	[EX-TORRENTY.ORG] The.Saint.2017.PL.1080p.WEB-DL.x264.AC3-KiT
03e772f9aa241634052dc48623eaa2f6839845da	865554186	3	The.Bachelor.S25E05.WEBRip.x264-ION10
03b3ba3a059fc36c83901e516fbe9044fb6e26f2	3351718394	1	AEW.Dynamite.2021.02.03.720p.HDTV.x264-Star[eztv.re].mkv
04276424a216eaf9b918e6acab323e4e2b17e00b	1571815491	17	深蓝飞羽@www.sis001.com@深蓝收藏，无名女，不好看找我
04084b928422c87a8f5ccc52d251ed83fe2b6327	1716416718	16	396_sara_04
046f448ff0d9bb702d3f7b5d0746d9bed1596846	853098303	4	XXX[2002]DvDrip[Eng]-NikonXp
04924a5db5e2ce5b399ee40c9193ca5ed0ca7957	2263148256	5	[thz.la]detail_13427
041090bc85ef4c780bfbc5807350f85272cbb37b	258758092	1	Kitchen.Crash.S01E05.Meat.on.the.Street.480p.x264-mSD[eztv.re].mkv
05bad71a59e58bac5e89e9db4cf692bbdeb52c0f	801744	1	designoptimal---3d-stadium-logo-intro---after-effects-templates-zip - Downloader.exe
05c2b4c4905aca8229ce3f207f3abb0fc7c3df1c	684068025	57	01.heydouga4156-020
0530587f4b5582199664b41330c2bd836cb30a29	589081428	1	Dateline.NBC.2021.02.04.Shannons.Story.XviD-AFG[eztv.re].avi
0500cf62a72fabddc19ea3adefcc46c99fa1fd45	5289774456	6	Homeworld.Deserts.of.Kharak.v1.3.0.X64
054fec356ccd0538102509acfcf3a42d9107404a	941474130	19	092409_01 by arsenal-fan
05f0369e0df859e68fb5e487e525898ed2d18a8d	16249578142	11	Monsters Inside Me Season 6
05420a0d733eeddf87d1106905030e1d3441d48f	677939515	1	Stephen.Colbert.2021.02.04.Tiffany.Haddish.WEB.h264-WEBTUBE[eztv.re].mkv
050f5587eca265d0b3eff87d4de31aaa269d3eb5	397790392	15	1985. Eric Clapton - Behind The Sun {AFZ 175}
05338b7231e3e8ef8ea87ffd8a7336886c1ef1ba	898310948	1	First.time.double.anal.for.Lady.Milf.YE059.05.02.2021.Legalporno.hardcore.latina.anal.dap.threesome.mp4
0511fd13b4041ad2a91b9f5b6e881c614454c6bb	25826389	1	Shakira Threesome Sex Tape
056eef91cb464351dfad1176ba56cc2c5c08bcde	794470652	1	ABP-566.mp4
05acf5977e353bc04d11504a75b1339871b026fe	987917062	1	Queen of the South 4x09 - SUBTITULADO - www.subtorrents.tv.mkv
06ed9a85d818f013a618e084a50a0c63ff36974d	801744	1	pregunta a los storybots - Downloader.exe
06ed5c2b5727c1c1af34fa1916d706ebc40cd651	4588568576	30	RobocopTAS
064d448ab52927ac0698cc3e00e89d1ec1e0eb5e	656160612	61	隔壁邻居粉嫩巨乳女儿被我开苞成为炮友 超誘惑妹紙臉蛋身材很完美 与老婆在被窝内偷偷摸摸玩孩子睡在旁边不敢叫出声
06ecffa8307b2fede913fc934ba96bfe31bb9c5e	1447513014	6	[EXSM-010]素人着エロ娘 なつきちゃん19才 フ゜リ●スホテル・フ゜-ル受付嬢
066d8fbb840f4e1e9d5e080901331b42407828b9	28300222	2	Sparkle 2.0.3
061b3c90bbf2f9adbc903fcb2d39176866f642bb	2250980948	1	DeepThroatSirens.18.07.04.Austin.Lynn.XXX.1080p.MP4-KTR[N1C]
06c2356b066e43d104bdc17ff68d53b0b80d2ee9	902112667	46	RP-007-sd
07529a20136d6936ae1d87074c99c7153a843d07	947661135	2	[ Hey Visit www.scenetime.com ] - Out of the Fog (1941)
07d0c91c0e6ed5436b3fa3acde0e16cdf5c4af45	422039571	3	【黑暗世界3D】【DVD-RMVB.修正中字】【2010最新俄罗斯火爆科幻大片】
07cc20552b00af1b1f3bbf650f6f9017f2cb107f	2291161171	31	Mywife-No 00339 MAYUMI INOUE
07755ff4b153a8665acb07c2961a140e6e2d638e	733357674	1	5cm per second
0788d87e4b3562acd054f747a6959dea151df2a2	1278209794	48	10.PixAndVideo - Antonia Sainz - Tittyfuck Or Divorce
08768f83f8c775ffe73f6cc3756e68dc69b39808	895836866	1	Naughty Americans - Shelby Paige HD 1080p
0815b8ff0a048089ee4118552c9f6dc58649a858	2183073894	1	MightyMistress.12.03.04.Sweet.Claudia.And.Katy.Parker.XXX.1080p.wmv
08fbabc6b6dd2523252c807b7a3cb491cdb55565	22538663	2	dBpoweramp Music Converter R17.2 Reference Pre-Cracked
08e2a6aee87ec069475ccddb2e114ccdc65fa99f	461174905	1	Alyssa Bounty, Lady Gang - Double Pleasure 020421.mp4
084ad5934b2e9a552380cf33fc3ac984a6b20aa4	37931395	2	Poser - DAZ3D - War Witch
085f43f8563875b16554c609e7ba289fb00161b9	263322452	1	Superstore.S06E08.WEB.h264-WEBTUBE[eztv.re].mkv
088e1b749a9afd350896ee26661f47a0e4f4c5c0	7654736881	33	jksr00479
086151ef32459ddcbcbe8705a91237e9e02dc3f6	520797937	1	beautiful-soul-sapphira-nude.mp4
08de04ed7e8f8a0cba864150c01ce3deed6964fa	623203003	1	Killer.Cases.S01E08.WEB.h264-BAE[eztv.re].mkv
09f63b9f7df34ad8ec387e30e949707be716f602	1907343655	3	Resident.Alien.S01E02.Homesick.720p.AMZN.WEBRip.DDP5.1.x264-NTb[rarbg]
09dc6aa0ef7f7a88b6de9e6aaa329013fb78f93c	693109480	5	Bob Nudd Guide to Whip Fishing
09aa2448b70b82a55d3d7ae355f954f9ab0b764d	397564982	50	[nicollubin] Hanna Bakuła - Wnuczkożonka, czyli jak utrzymać laskę czyta Anna Romantowska [audiobook PL]
09b093f7a1a713e6c44d13d5f9644af78c6cc294	2061567706	26	110917_171 主婦を口説く 31 〜むっつりスケベな主婦〜
09edc05e0680bcbf6cbcc7c14260d44241f792cd	704232400	2	The.Wild.Pacific.2015.DOCU.BRRip.XviD.MP3-XVID
092af07d6d96f56e3a0c676522bfee98991c13d2	232641468	6	www.lyrics.lol - The Quintessential Quintuplets S02E05 XviD-AFG
09fe7607cb97e9b374f440d303e57159a56bcef2	2704184170	1	Space.Sweepers.2021.1080p.WEB-DL.[Hindi-Korean].DD5.1.x264-HDHub4u.Ltd.mkv
0a4080fec27ee6a3f5d74ead7202d7d95cf0a905	2685898407	120	60 Assorted Magazines PDF February 6 2021 Part 2
0a39a0e9184b7d90bde13220ba38fab3bcfa251e	1300758528	9	STAR-773.白石茉莉奈.白石茉莉奈セレブ奥様のM男なぶり
0a2603c1817fa5776b0745127bcf95c2193ba88e	12401833	1	(C82) [PLUM (Kanna)] Wonderful Bomber (DOG DAYS) [English] [EHCOVE]-1280x.zip
0a3c5c9b583d24e76f94629509fd8dce33296ba4	1445238155	8	myba-012
0a98565f3f2b44c15bf9648b9920f314d9dd40a7	860881168	9	[www.52iv.net][IV][JYH0003
0a151a7800fb33edd6bb25b69c893e152afb57b8	547115851	1	DYSMANTLE-v0.6.7.7_setup.exe
0aa89a080699806e5fff6bf914abaf246eff2bcb	722770224	107	111916-307
0a00c81c936faac08e9e9658b90f845c9bd5eee6	22538266	2	JetBrains PhpStorm v2020.2.1 (x64) Build 202.6948.87 + Crack
0bff631032e0621c85d5e8047cd14fff9465d301	437311629	3	The.Daily.Show.2021.02.04.WEB.h264-BAE[TGx]
0b44e1fcda68b7b82930bcf002f662dd0f160a41	138799104	18	Moodagent Presents Eve (1999)Ruff Ryders' First Lady
0bea9f90a2dde85203e63bfac3cee2df3bcd9848	2218517558	1	SHE-026.mp4
0b3896579c0dfb09508e12c001e93c8ad0402f61	1840661485	29	H4610-ki210207-HD
0b55a9ab715e638c1ee7ea9b97ab4f40a094b86a	1351343340	122	TMEM034MP4
0b634d645f4d8eac664e0032c97ff5576ee53e6e	195089852135	1316	[BDMV][Nyaruko Crawling with Love!][這いよれ! ニャル子さん]
0be21450242744d33a61eb47d8a7451c9e9cc87d	15569139892	2	F1.2014.13.Italy
0ba3478eb7ec263276ea462145eaf21a1c1bd98b	428626703	2	红楼春上春 Erotic Dream of Red Chamber 1978 DVDrip x264 AC3@Romantic
0bd38d009f3156661e0718272aa2d04ff54dc492	1335941685	3	jufd400
0b738adc15b81facdf4716499c6b8bd1023ccda4	2013928873	5	[BTBT.TV出品][美丽猎人][日本/720P高清完整版][1.88 GB]
0bc829b3d36f777d7e754258e83ec35e1c146bd0	2887129299	1	Topaz_Gigapixel_AI_5.4.4[SOFT-Torrents.com].rar
0b22dcb6bd4ec1f585fad514bf8ea2cd1962e7d1	15255857	1	02.Explorando el diseño web.zip
0b7cad9f9333526b2356a6c1210e64c2f2173fef	1288398926	15	dwct
0b221c36c828bdcabaf7e958f920205959df63f1	160269833	1	[HorribleSubs] Fairy Tail - 66 [480p].mkv
0bcf1fdee9942c85c8c1fb61a9e34f80f94b9afd	1308151918	2	[Prestige] 자취방 연인 휴일 아침부터 저녁까지 그짓만 [inu-006] 도쿄 후루꾸
0cb8d0b22e6a3e90c7cd608fdeefc1e3ab837911	1593891690	121	SGA050C
0c8a1b3af141d9cbe288bd6c9a0456bcfc408134	24741480	3	You Are Awesome Navigate Change Wrestle With Failure Live An Intentional Life
0c8a1a569ab2d42d7b10b47b8fc6b5bb2324845d	754366277	4	SexyCougars.12.07.13.Nikki.Charm.XXX.720p.MP4-KTR[rbg]
0c47ca4c37f4dbd55f0dafb0440917216dff9a61	100176058	11	Noiseworks - Noiseworks 320KBps {FP}
0cf33b6d403a42d4b80eb36e6a110084664c1593	6476049570	7	[Combat Zone] High Heels And Glasses 2 720p
0c73862957d94c0118c752faa486303ca3ac68e1	288876346	25	2048-02-12-3-20
0cc1a1c25f2f0b4fc826e0dc903d468e69d6f8f0	620386407	16	【sharemovie】【sex8.cc】841号温泉大酒店日本风格的厕所
0c8b590d68a5d48297b4e0a985e1ae7cf2b2b8f4	951071072	5	Yakusoku no Neverland S2 - AniLibria.TV [WEBRip 1080p HEVC]
0cc39874ed42bd02055081710326c2da045d33f4	1804337874	36	SOE752 AVI
0d603c214880784bde4124d55adc82f13b05900a	2889769272	1	MyFriendsHotGirl - Morgan Lee_1080p.mp4
0d5d00de44bea2f6fe1cb3677d8dabaf7dab992f	223206008	1	FAKE MOTION-唯一的愿望03集720P电影淘淘
0d7e2f837944b4705f55c22e9edf130d796e0030	376513823	8	17.酒店猛艹内射极品大胸女神级美女+台灣的幼顏好清纯啊 很给力的国产美眉 曾上台湾综娱节目康熙来了
0ddf1f8878eae17972d9360db1da91fbae3a3751	807044311	2	Disney G-Force (2009) Norsk Tale - Nicemaniac
0dc81484ab3832d5f7c75626ccd46cc350829679	8687353856	53	Watch Dogs
0d87b7b17e91fb6b642bf11d4b4753029465d0ae	2358313695	4	TmwVRNet.19.02.27.Jessica.Diamond.Long.Day.with.Fingers.in.Pussy.XXX.VR180.2700p.MP4-VACCiNE[rarbg]
0e1f9c5416b085ac074bd0097210915ac5a35405	158789696	6	www.lyrics.lol - Bloodline Detectives S01E15 Walking Nightmare 480p x264-mSD
0e77cce90db137b4ff8d37b3ded15087f965b243	60789503	13	RATT - DETONATOR
0ed94a8fbd532c671a7017805f21f2035a84769c	40068492	1	KOMPA-DIREK DEVAN ☆ DJDOUCE #1...BAL DU SAMEDI SOIR RELOADED VOL.THREE__AAC_128k.m4a
0ed52ef982550d7399cee29e2600fb40be0fe6aa	205498028	14	女上男下多姿势无套爆操极品美女 最后射到美乳上
0ef3c8ddd8e47f67c87b6d0d9158f6a425d0f9b2	2896167209	13	Y237
0fcdc68f6ba469bc0b03465f61950adfc7a7ee15	96054674	1	Desi telugu bhabhi bathing nude and dressing full video part 3 wid telugu audio
0f2095e3a71e4a2ed88681eef3de727047e51b49	148815896	3	18OnlyGirls.16.05.11.Lia.Meet.Lia.XXX.SD.MP4-RARBG
0fddb34efb90d4143ca99127eb75aa1f3e6ac94b	111982285	1	[スワンアイ] 魁！めたもるふぁっく学園！ 〜黄金の恥丘とパンツの秘法〜.zip
0f78f67fa5ee0227341a8203f0b7f6a9fd340478	481446920	27	2021-02-06-1-34
0f3714ec55ce1a8f0a7331f9c8122873e8910b81	155989480	1	[II-Spa] Wonder Egg Priority - 04 (720p) [SUB ESPAÑOL]mp4..mp4
0fa11f4251e0001e262610923e7597ed744254c9	544114522	22	PGD064
0f1044744bd45c312fb5623dcd7171f97af85cca	7275147	3	Mark Knight - Your Love [mp3] - UmBreOn
0f7f46dae38b53ea962eaf9e5225fce281de3dd4	481296629	15	喵小白@第一会所@自信のないキミに脱童貞早漏支援 芦名
0f16593218c2bae520fec884d4631698d042d4e3	14840722	2	WinRAR - 5.40 - [EN] 32bit + 64bit + Patch
0f4e94bc0f57bf11b00d6fa9b1e789e14c5a6de3	1782606211	24	47.080712-094-carib
10b02d6cb5f187e4fb6d59ccebdb05372a4a8f14	1238247964	57	SNIS289AVI
10b64e639ccc006a74139cb4c7b9e454a88f1634	839239172	9	【ＤＲＭ】死亡繁殖.Dying Breed.2008.x264
107586b7d73e212a4ecd81d640858d323b36603b	3158390763	3	Wer.2013.720p.WEB-DL.x264[ETRG]
1029b3cba3c1fc9b313a8ccc356714b0707a4946	1628612299	1	068_3xplanet_TORG-003.mp4
10d00928384a6a7c00d305db80a1bd3d4264ee4b	318511103	10	【RV】French Asian babe gets anal'd in the kitchen
105acc5c9edbc73ea6fc317268bdb0ab9a83ea4c	758503436	13	【YMMV】heyzo 0290
10c2f2eea681d7f15f09350403b365764bc60a51	1379703	3	Still In The Game How Men Over 40 Get Results Dating Beautiful Women
10664c3aae186114a726ca5c4d847e7dc2d88c71	333607568	2	Minecraft.1.9.0.Cracked.Full-P2P
106c0e78b756eb4a2ec75c3fff33d1b657ddfe79	736078680	1	17 Again [2009] [DvDRip]
1001c2745bd9197c5add195001e82ee586c0c3c1	343587065	1	The.Mick.S01E02.720p.WEB-DL.DUB.WWW.COMANDOTORRENTS.COM.mkv
10ef6a30f73ec15affdf302892420515df000ac3	856678669	7	www.Speed.cd - Burma.with.Simon.Reeve.S01E02.BBC.WEB.h.264-SHRPY
10c76a4096035afb4d7df47281daa5cebeaf56c4	570214449	17	【贴心话】EKDV-117 songsumire
104f25ed39caac684827458bcc32d94eb50c14d7	2724710247	6	Confinados (Locked Down) (2021) [BluRay 720p X264 MKV][AC3 5.1 Castellano][www.PctReload1.com]
106a218e07f2e8fa72985fafe0684442ad8a79f9	345603093	1	Mega-Public.flv
1102013c86090e230322c34490812b505371781d	1388200863	60	04.crs059
113777533801975a68b2d422d9a72f638392da5f	653072475	6	48 夯先生M字开脚缚调教90年肥臀小幼师
11d2d09fbeeb5596fb65f6dfa3371a656a823568	438374809	4	Expedition.Unknown.S02.A.Day.in.the.Life.Special.HDTV.x264-W4F - [SRIGGA]
115126bc98403d65f0fb04e7e51befb5c2298b81	533777672	7	olo@SIS001@261ara-299
11dc1af54dbd6f95a54d055b3abf98df988e7d8e	1262994243	1	NTR-041x.mp4
11d68e8f0640db031ece030373538ce10139c0e2	2349334844	5	Z14
121917f59bbda37a36290b442357caaed2034369	1413632262	1	JapanHDV.17.12.18.Kyoko.Yoshino.XXX.1080p.MP4-TRASHBIN[N1C]
12c67beb2c0b6b25cc715d5ac3a33ff8f2a11586	105665940	1	0608 (16).rmvb
124edacb3ff2616198b5306008a8fa5dc0615c8b	4636793	1	Tommy Emmanuel - Determination missing track Fiesta
129e0fc24cb8d5474f1440845227dd84fda4cba2	1559393222	5	Private Lives 2 (2014) XXX WEB-DL MP4-RARBG
121c7582751ffc3df0e18eadb0681c3f9ba8d9b3	2296551928	19	gc444hdd
1233f00a63fa5c4ee444f74078f163784ce262d2	151301031	5	健身房认识的寂寞美骚妇老公出差视频洗澡尿尿掰穴勾引我
128f8ab270a4f4df67301374fed9961256ffe8d9	297325293	1	111776_480p.mp4
13c00626a17f60a2f423f906dcb0025021c2d604	316737854	1	[UHA-WINGS][Gotoubun no Hanayome][09][x264 1080p][CHS].mp4
13b6609bcdf549b1d6e96560083d955270d4f70a	537614856	10	【性吧论坛.com】8202
133a55cb75b371c206470e81f2a13a748b6e2c16	884584745	8	[下载库www.xzk.cc]冰与火之歌：权力的游戏第三季02
131c38ab60ff40784534a6114b5009d340e01128	3830665	1	Ship Stability for Masters and Mates 6th edition (2006) eBook-ELOHiM.pdf
13b971e07a62a2d5cb06307155e2fa3cdd004544	1233007989	4	chikan@T66Y@CYAU-002
13d5724e61f6c6c85acb94f387e38940ac28d790	9075500078	5	WandaVision (Season 1) WEB-DL 1080p
131c17e3b475317fff4234ca51cdb54cae592495	30819134	1	[かぱ] あのクソバイトをぶっ潰せ! (コミック エグゼ 27) [中国翻訳] [DL版].zip
1396113d79bed422d98e4ddbcd3b11ebaef73d98	878526489	143	[红馆97hg.me 51hg.in]萌蘭醬（萌小兔）粉色比基尼 口紅跳蛋自慰 71P圖片1V視頻
13a639a842fc1902454e37a91fcb02e76a18b2c7	3485280830	4	[160129] [Lusterise ] 光翼戦姫エクスティアII
13473c8d7f357482b88816481bd71eee3c23a9ea	3351249018	3	vov-042
1497f7a12c5dc841b15e4ca0f5415999f1afae31	1122795888	12	HEYZO 0560 女王様気取政治家淫亂秘書 超極上氣質美痴女まりか
1443308f7ce7e70d8bce9bf94d34cdc6532bcc64	194049776	2	ALSAngels.21.01.26.Kylie.Rocket.Photoshoot.XXX.720p.HEVC.x265.PRT
14e0f893aba16ab42375c4497712309504a0d79f	195398556	3	DomingoView.17.05.17.Selena.XXX.1080p.MP4-KTR[rarbg]
14a38e04b17b9e844c7a10521df7113407e4efbf	378617628	25	one2048.com_020920_972-1pon-SD
146c92f67bf8b185761a643923224e0f0855cfcb	3131525508	10	[AniMaunt] Xie Wang Zhui Qi
1484420acaeda3e8c1c4d741ec12a9c0a09c84f9	2110616200	1	[BehindFriends] Paying Extra For Bareback (Ricky, Tim) - 1080p.mp4
157f424957184c17ff9b19a787dfa2edb4b20c37	98444113	11	CL@欧美极品 双姝涌泉(清晰喷的一塌糊涂)By：危笑
151d2d4f3bc501f80b1728e5f8060bdec5954384	16415336499	32	Flower Boy Next Door
15eceb20f270de24d4de576e1981ae3feae64088	1110497484	1	MeetSuckAndFuck.15.06.23.Candy.Vivien.XXX.1080p.MP4.mp4
15cb19023066c7c81e803ed898ae457f0a353294	987765891	4	All.Too.Human.2018.WEB-DL.x264-FGT
16579daae1c9ec8e859db7fd160e048378eaf404	572889887	1	[HorribleSubs] Brave Beats - 17 [1080p].mkv
16df94cb840361dc796021cf0fa3c255fd50a60e	20216101	2	Ratiborus KMS Tools 01.05.2020 Portable
164c83faca01a03603107addf3b153916b768227	26961592	1	Kimu no Tamamushi (Okashi Tai) - Tetsuro Legend Slum Edition (Galaxy Express 999) [English] [Shotachan].zip
160174c3538a38bb9fd5b1e41b8b92116a07af34	685831339	1	AllOver30.18.04.06.Marcy.Diamond.XXX.1080p.MP4-KTR[N1C]
1655befdb2240020f30a33ce109dbf8b096d4936	9588660	11	Preschool Tea Party Massacre - John Denver School Of Flight (2005)
16ad37f19cf273b0e4c636b7b22438666c652546	221556759	4	ThisIsGlamour.13.04.13.Leah.Francis.XXX.720p.WMV-PAYiSO[rarbg]
16aa4fa23c92b6c797d69ff3ed99c7e5f5133157	572964491	6	【知网论文重复率检测Q：40982175】[凤凰大视野_中国农村医疗备忘]
162392e9d96b03b4f1ec972b2a9379aa78e06290	230441582	10	Angelo Branduardi - Tout L'or du monde Vinyl rip FLAC
16cb75f52e0aa77d8a804214ea3a829be5e20eb2	2651662492	2	Resident.Alien.S01E01.Pilot.1080p.AMZN.WEBRip.DDP5.1.x264-NTb[TGx]
1629e393e1bb3630e191923ae0d7d4086f7be3c4	272737486	2	Buckwild.S01E07.iNTERNAL.HDTV.x264-YesTV[rarbg]
16fcd59eaeef5f11eee75545854af3deefedb1ff	831049867	30	26.Mylf - Brandi Love - Like A Good Neighbor, Bang Her Down There
17ded3283c20b22c89a4517511de5657e760c816	271082790	13	Ty Segall Band - Slaughterhouse (2012) [FLAC]
17ca66be04c8600c03c27ec888bb364b17065421	327861328	39	xxxav-22945
1759420ceafb0f7cd39c5a3b8e10ab0ffa2ab559	155068593	1	Interny.S02E15.WEB-DL.x264.AAC-Y0L0.mp4
175266a55602c4c1cc6a5764d9fbff578654816a	1459042028	102	The.Life.Of.David.Gale~PROPER~DvdRip~maz
1717b0e76a2422fa536a7354cb298ecbb398e27e	2103194997	1	Abella Danger - My Little Cunt HD 1080p
17d0c195b8f97d705ad15eab1f0d4003d0d6bcb9	1463716266	5	【ses23.com】031415_01-10mu-1080p
178e5adf445be074db07e7b5e24ba2180f1fe1c7	94237452	16	Various Artists - Break My Heart_ 60s Brit Girl Angst
179578dcbca71eeb885b632de58fef9f3a0fdceb	1562517504	1	Un homme ideal.2015
18c2eb7f7ec724f857d9d1ccf66619fe51a91d1d	11958240734	3	Infamous.2020.1080p.Bluray.DTS-HD.MA.5.1.X264-EVO[TGx]
187fd8df22220d6c32f39a9c6f02b377b581162c	2172230861	15	xuhang864@abp-516
18f3fd20a1c025ac3b3b98604255da5e5e06c02d	1960793310	15	020621_001-1pon-1080
1891f0f10dcff45c6eb500b86fe9328d6499b74d	27500	1	mlpush.zip
18c49ea2251598c8163588991c851742b9f58668	1869680306	1	纯纯的妹妹性感长腿眼镜妹子连体黑丝诱惑，跳蛋塞逼厨房做饭开裆扭动屁股，翘着屁股尿尿非常诱人
18fbca9315fa9f52b13f2ad47635aab295a93684	3128918132	6	3DMGAME-NBA.2K17.Update.4.and.Crack-3DM
187c23bfece7c55fdde5d1be8551fe5ba567f18f	733272064	1	Flashdance.avi
18e3c907d471c54f8bcdfa99879c5fbb3060169b	7848887300	12	1099
18580ba646d0094f800722773a31f15632b2a6a7	210710268	1	MacGyver.2016.S01E21.720p.HDTV.2CH.x265.HEVC-PSA.mkv
1800c9a0b011101d30d16ae983fee39c3824d0c0	439045803	12	HJD_2307
18d7bd0bf12e0caf86c644529146f219a0c166c3	63743532	1	居家盗摄系列6.mp4
18e4b27ea83f4311e5c583a618ed1fcf2eb5d4c8	13404879	1	2 Girls Fisten ihre Freundin Anal Fist.rar
185aa2c7c9b4f2c504783cb638adaa01a574dbcd	326510930	57	VA.-.538.Dance.Smash.Hits.Of.The.Year.3CDs.(2009).LanzaMp3.CoM
18e5d87584efae9a0c7c1dba96b4710586418be8	17688456117	17	Valkyria.Chronicles.With.Update.3
183585fca1d5b2061a68206e282b042824b85cf5	324849568	4	Fat and sassy #2
19855dcd7b37201365ddb8a07b1a8115bd6bb800	1766163394	56	DS-03724
19df1143c6573c13a2b5db015e79bfa724a15717	231050062	3	Popeye-The.Island.Fling.1946.720p.BluRay.x264-REGRET
19b99df502a45ff0d211dc14801e75b371aa6323	443470097	43	Symbyosis - Discography [2000 - 2005]
19dc658eefc92da2bbafbd0aa6ba7f79f4403f3a	149920	1	Hustle S02 - Downloader.dmg
19d5400a8a1d410f76419b7b0db5d25dd8e8175e	1615485388	82	MDG-166
198af07954efe5e2a11177921af6208b17f8b97b	7139666	1	B Louder Special Nude Issue (July 2019)
1946d431cef35628446f86633e9af33374ebf484	1976894660	30	04.club489
1962e9680426510c728a5ad3219876fc2587c38f	2061020420	1	It came from the Desert 2017 10bi hevc-d3g.[N1C]
197484440f02da1b0c8fad81e9d97e3222a602be	73917111668	22	Buffy.L.Ammazza.Vampiri.S03.ITA-ENG.1080p.AMZN.WEB-DL.DD+5.1.H.264-gattopollo
1950cc69f6b4df74b42eaca2805a306671f38dd5	104452626	1	(同人誌) [三杯酢] 痴女電車 (オリジナル).zip
19df964512b89ee43f08fc7e9cbd9f3bff8613e4	1558645625	4	Exit Humanity (2011) BRRrip (xvid) NL Subs DMT 
192b06bc345a851325652098c21adfc8cc3b8aec	12360478980	36	打工一家人01-36End
193129ed8baf9dabff5a1f335726cf7d60cb61f9	188649346	1	mtv-zvezdi_na_ladoni-onhh.mkv
1a4e91bd95f08cdc253e7ffaaf0b374f12cbc726	648502342	5	【爱看电影网：2kandy.com】颐和园 未删减版.2006.DVDRIP.国语中字
1aa53cfce7b58e8a7cb072ba7388653de7470a3f	14158767768	100	Schindlers.List.1993.1080p.BluRay.x264-HD4U
1aa38621dc358637f50a7896360d31f69d386993	2922933336	1	2021.02.01. Alpine Skiing WC. Garmisch Partenkirchen (GER). Ladies' Super G.mkv
1b74a6cca70f3579e28e0cd7883803593ba9583d	3949678944	10	Topless.Prophet.s01.HDTVRip-AVC.x264-RUS-ENG-lrn
1bdcb5e24d3437a90fa3a59e3723e4b97278e276	557593829	20	Shok Paris - Go for the Throat - 1984 FLAC
1b966bc731114ed078d041c4fdc9fac6a6c2f97b	232663218	1	CrissyMoonFuckedAtRandom.avi
1b1d9d58fe2b7e1871065482bbdf7766e4b29083	110	1	NordVPN account (valid until 28 10 2018).txt
1bf53832b629739fb03a4c66ec368fd4473b949f	737360148	1	Sia.Lust.Stepgrandpa.To.The.Rescue.720p.2021.VHQ.CENTURION.teens.roleplay.mp4
1bae64243edf1c5a8ef5110a9bf029912a1e6cde	452244124	1	Machinarium-SKIDROW.zip
1b673e4748246cbf76f7d2d0c248f43b8c4a78ed	43309886	13	Tom T Hall - Songs Of Fox Hollow
1ce65690dffd0fcde9ed218722142896f6675706	522253320	17	31.国产老婆长靴黑丝玩电脑叫过来吹鸡打炮+在微信上摇到的妹子，先约她去玩海底世界再回宾馆日比+红色丁字裤气质女孩床上经验丰富口交做爱都拿手
1ce3a96ced4f8bf403686d66a609960fb93a3d18	1041842413	14	【红葡萄老司机必备】青純美少女-香坂百合00029dmb
1c7e604b18914dfa203721f2d73b2c1353578e2e	2463208157	4	A Teacher 2020 [S01E09-E10] [Finał] [1080p] [WEB-DL] [AC3] [H264] [666] [Lektor PL]
1c88284b8df28f0818014b0437e1ab9b1ecc0530	1103204374	1	dv-1493.mp4
1c1efdc3c1cd8f10457ad88c2bbf3a4d7210de4f	2054497105	32	hjd2048.com_190126样子有点阴森的情趣酒店开房妹子说害怕要抱一抱-2
1cc1b2160fa2dc434eb0963fd38e143af8271879	2234202704	44	AP-178-MP4
1c3688a026300a1296afe7e5772b693a2e5c6f7c	262127191	4	CrazyAsianGFs (Pussy Play) Marica Hase [.mp4]
1c156d3f7fa27ccb5b7b568d8c7c1cfb9ca813a0	2690250	1	Comics Porno Gratis Saturday Night Fun 2.zip
1cb178b534fc80942c1ac6c7703f959e8d2f3faf	1682078441	1577	CorelDRAW Graphics Suite X7.5 (32-64Bit) by XFORCE
1c1054929b53d81070037f854c55553a6a3192ce	7802254586	30	[Bereke Scrubs] Daimajin Kanon
1cc066f4e6d855b269e6f4478a0eec2292721dce	22538662	2	Farming Simulator 17
1cfe75eddaeda9b90646795fdb7026e0fc7761fc	1414904166	55	MXGS907
1d190d83d3e8bce5016221cda0fd386382cfa727	3062690335	120	60 Assorted Magazines PDF February 6 2021 Part 1
1db6d6802602b47f70fdc2af5e17f9338044b34f	965544978	2	ArchAngel.17.03.17.Kendra.Lust.Kendras.First.Ever.DP.1080p.HEVC.HQ
1e2436c7d093b09bd87c45424f299e917484f700	6303643	1	Unlock-Топорков - Словесный портрет, 1999.pdf
1ef1c3504e4398ea5747089c38bf6cfdaef59417	4528015360	1	e-type video collection.ISO
1e19ea1fa35b8e8edacd9414bfa5adae3b1da129	124082680	12	Nioh.Complete.Edition.Update.v1.21.03-CODEX
1e347472ac5e86fe9093d854641f3848545fd551	1359299892	208	MP3-daily-2021-February-03-Rap
1ebab4146948967d8498a1ea0d1486149ff71262	661238922	6	www.lyrics.lol - Wanted A Simple Life S01E05 XviD-AFG
1eb0e6f5d0b9f9b624b6e323d4a6f9af0d4fe07f	4003713214	5	[thz.la]bb15877-1080p
1e4ba0f7802236721a65c7dbfb293f03bdf59fba	63332588	17	afterglow
1e78185038c1784ba79aa5a280a4a1d7b36c28bd	486593047	3	Constantine - Temporada 1 [HDTV][Cap.107][V.O.Sub. Español Castellano]
1e4673a29f3ca174dc15c131c20fd31d8a6b62c2	69283736	2	ATKExotics.20.10.31.Lacey.London.XXX.720p.WEB.x264-GalaXXXy[XvX]
1ef4e921af9bda4096821513ebe9ccefc005cccc	1182153931	67	cnd111MP4
1ea1b663970af9c2b07446dae33a85ad5af1f3ee	1221190583	3	Till Human Voices Wake Us (www.kinokopilka.tv)
1f00409f8880501fb15be1cf2bff1bcdaec8a61a	1372177842	1	Hollywood Safari 1997 VHSRip Bg sub Atany&Stezarai.mp4
1f6b7407699faffb55e570b13d2cb7be11227869	204494768	1	The.Daily.Show.2021.02.04.720p.HEVC.x265-MeGusta[eztv.re].mkv
1fa36fcbc5455cf82a124076301e07e8e9c830a0	188985372	1	Leah LAmour - Leah LAmour does it again!.711x400.mp4
1f5e072b29b50796e9a6ef14d16d14dab36148a1	971327129	3	OYC-109
1fed04887715fc5b6fa27dbe7f4666dcfaae85ca	15199692545	7	Depravity
200bb4867912afa21c9ace68ab88df872073140a	139624895	2	MeetSuckAndFuck-Hanna
20aad02c1b056e372a38947c742b36e1f873b22c	3590059	3	Home Workout For Beginners Easy Way Get In Shape For The Rest Of Your Life
20bc07e2d1b589592b4873b6110e05b30b75af2d	1267647728	1	女高怪谈5-结伴自杀.mp4
2024b399751c04174413b891052c0d08b4d8db37	340693167	1	FemdomEmpire - Gigi Allens - My Key, My Cock - 720p.mp4
206e5c44094d3f0cb4f4b8d3f2f7c50262a94385	2156866310	2	WandaVision.S01E05.Episode.5.1080p.DSNP.WEBRip.DDP5.1.x264-TOMMY
20cf0cb81ff5915361b3c90268b167980b6c428d	856139443	6	www.lyrics.lol - Heavy Rescue 401 S05E05 XviD-AFG
2056eabb935abf71135a2d0ce02f59aeef6648a5	1717868170	1	LBOY-004.mkv
200e46e4a4fba0075a7b93c02a96f97382963bd0	970185202	25	011919_800-1pon-1080p
20b09b4920539b4bd7585d5b455290b06f0569ea	1725363105	1	WandaVision S01E05.mp4
20953f25af3dee7fc62a04cbd31d9c97be60dff4	3307192261	5	[thz.la]bgb_ella_knox_bb072117_1080p_12000
2104450940e2b9af9dc88820dddd68ecfa316d31	107821969	1	MrHappysGloryHole.com - Aurora Snow.wmv
21b7817658a1599e0c8e87da116648da66ead377	1032586188	11	GS-110
21ab86c5c4ef4ba77525e0c461ec3e19342cb4a6	628313699	74	090717_577
213c80f2239227c8a3b958e98091ad2da4682bc6	399026480	6	Stunning Lesbians help themselves to Feet and Pussy - Pornhu
22460edf1d5853f862feeef0ff3aea963ae5cd4c	255184718	3	Sirina #81 Greek Amateur - The Best Man's birthday gift - 2015 DvdRip x264 Ac3
22cf4d5c0d75eac4ae726f0fbe953bc69db5d978	806047364	4	Haute.Dog.S01E08.720p.WEB.h264-KOGi[rarbg]
224989b394522578eb75fe851869cbfcf11c387d	877484568	1	高清晰日本女优高超做爱,性爱技术.rar
224cd79a53f8a8cc7c84140e248589707da9a892	977634354	71	Tora.Tora.Gold.Vol.38.DVDRip.Jav.Uncensored-APX.[www.NOVAPORNO.com]
220d7fc821c503294cd2e378d1f54b241aededb8	7918805	1	Need for Speed™ Hot Pursuit v1.0.61 Final Android.apk
229e9617a0909a38c7c63dd7aab61264175299c3	6522310144	7	【SEX8.CC】JUFE132
2276cbdcdde97d52dfa44e3b33cbdaf5528e10cb	2630425642	5	Not Airplane
2279e637110dc308f93e818bd8bd6b3c4fbdfaea	4220263766	1	[电影湾dy196.com]喋血双雄.1080p.3.93g.Yzm.H264.AAC.mkv
22823bfbb74d334484a299e6d857814b06df65ea	624409164	15	群星 英雄有情[lwg188原创]
23f1185255dbce59754b097c8be93524c8e47257	286916212	1	bex.17.05.23.samantha.saint.the.perfect.maid.3[tk][480p][rarbg].mp4
2358157c3999e3e4341fb1f5b4594a9f76410192	293713928	1	Big Rear End blond hair lady gets a rough get laid mar punch.mp4
23b740e4882d3a0b2d319a61fa5ab20033f08e94	289931989	13	GC049
232c766a10e3d5b2584d4fa24af721d34db167af	426378830	7	Qantice
2412f26ec507f08e5eff1ecd3477799922f93733	299396692	6	www.Scenetime.com - Jimmy Kimmel 2020 01 23 Kumail Nanjiani 720p HEVC x265-MeGusta
248b1d1e079f33d7a57eb65d359eb2cf48ffc893	3693689827	1	GCJP068.zip
24e34709658d20cce78b54068f468505d851d2a4	4617274683	12	The.Three.Stooges.2012.NTSC.DVDR.DD5.1.Multi.Subs
2434ea5bd16613ac6ef7dba440f3efe1b2d6c5a6	1171571039	3	Monster.Prom.v5.14-GOG
2432ac1059ee9625451c12106d8da7c5133679bf	17825918665	48	Ramdan 2020 2
24f6bb6162838c16469d859922e9bfbfce9f5dc7	1114671468	10	neo-697
24db39a58f68e71278da8069888a231c3a4d8ce2	476980254	3	Swamp.People.S12E01.480p.x264-mSD[TGx]
25fd36187c5b4f5322180dbb5a9b695d226ee70e	238325582	1377	ИКОНКИ
258c482e79de015fdd7b6e9c949fd37e135a3614	816449715	2	2014年恐怖喜剧《鬼屋大电影2》BD中英双字幕
250ce4c2d320339896cd1b4c5712b0a8cbc24f21	394329812	1	觉醒年代06集720P电影淘淘
253e6a7f96c3d10e3ff629cda7430db817086725	801744	1	my brilliant career 1979 - Downloader.exe
25937ba520456973e378ad0a24dae59e9b47a353	1092951072	4	PassionHD.Siterip.XXX.Holly.Michaels.Madison.Chandler.Washed.Away.mp4
25ff10e63aeda45eb7d16fb62543797f566b8a59	1294991416	15	JUY-204
25a91747916cb4d3200c8a0ca269973d8cc8cd6d	256541208	1	Dva otca i dva sina.2013.S.01.еp.16.Bg.audio.koko1910-MastersTB.avi
250a58118c225f2c6d5baf8ac92e09049e5f668c	759864941	1	Didi.25.Years.Old.Porn.Star.In.The.Making.720p.2021.VHQ.CENTURION.anal.mp4
2515f4da773ea2f2c4bc7e33ce1301fd195bcaa2	1459191188	1	SNIS-415.mp4
253555d3d670f2f7797985287904158cb52507d1	297077698	1	Alina Lopez, Kiara Cole - Take Two - S30E24 - 021419.mp4
2513fe3667cfb23e1de93677e33debc9a7a88de8	38667702	12	VA - OST - Król Lew
26e424f012c5a74f7f8a40093c34a81f7ba79308	1217536313	54	EBOD479AVI
26f9cb53696892db1b754883b205af3be21b2429	23164380	3	Vanquish Gorgeous Blondes 2017 Part 2 - True PDF - 6171 [ECLiPSE]
26a494650c8509c28b7e3a78c81a4b994d2f5e2e	224998732	10	Cranberries.1994-10-12-TTD.Newcastle.TV.flac16
265bd15c0ffa100a23f5d53c0f7bf6baca8d1771	1082655071	13	吴天@第一会所@MilfsLikeItBig - Casca Akashova
268cc664a0a0484fbe873b015182598dd2f3a386	306981084	1	[Brazzers Exxtra] Ava Addams - Taught To Talk Dirty - [480p][.mp4]
26f8dc6082145f2c329009f6e6f0e4f8af95e8b3	2139287175	1	CAWD086.HD.zip
26f35002cd7f24136214090400a79b1e927ec2cb	1038445798	1	avs-museum-100316.wmv
27c64f1b695baa35189843c303c052d5c97aac4d	1439926187	1	Sofy-Soul-CST-HD.mp4
27df235aadf1d5d0c948972d3ecaeeb37c23e051	801344891	2	Trampa de amor - 1x73 (HDTV-720p) Castellano
27e59bc082cd5a5d39b2ec56f3fa9a8e97f9917b	12125344789	11	Portillos.Greatest.Railway.Journeys.S01.720p.HDTV.x264-CBFM[rartv]
275840d81c9129ff7abd81797b2333ca62c2c4ca	1650213275	9	第一會所新片@SIS001@(PRESTIGE)(ABP-236)俺達の痴漢専用ペット_星野千紗
2794ed3d268ea1a2265966ac66741edf0c31aecc	569045355	9	東京熱 Tokyo Hot n1158 肏到絕對服從 - 片岡乙葉[無碼中文字幕]
27fbf2b42c7c9c53c46d4847faec1fbbe144bce9	392016940	5	[151127][PoRO]螺旋遡行のディストピア 「絡まり合う触手・美羽 ～搾られ捻るふたなり巨乳～」.mp4
2746671752388721192f5ba8e1feff3dfd7c66eb	12910302	3	Dark Psychology 9 In 1 Body Language Guide To Take Full Control Of Your Life
2794a9ac37840eeeeb357034f7bbf8a9bad296fa	1135692240	5	【ses23.com】xxx-av-21746
2893e1bc1d3a187064e9d1493b543d0c6d76dd55	7709107750	38	스타게이트 SG-1 S08
2882a23ae452baf432b9680679e3dcb543f5a258	229376057	57	KP-044_RMVB
28a17833f77b21b847370381bac5095941bd998f	1872158327	1	star695.avi
28573562fffd0b85d32c8b1e6ae000e9a4754db7	335295000	1	FC2 PPV 1182874 SEX.mp4
28f1c779a3f2b6fd880c653aa87c84bf415234c4	1312011011	1	FC2 PPV 1039073 19.mp4
28c96f4ff67848bbdfbe5150bc2af2c8e12f9cc8	1954598240	1	DASD-367 ロリっ娘美少女ニューハーフDebut 桜ひめな.avi
29a30215b4e55105b6e00ce4e8bc2f3d09c8e901	363231232	1	Danyos y perjuicios - 2x05 (EliteTorrent.net).avi
29f46cc00ebd0e3a1c6ea4bcc26edb866e42012d	381787679	1	Heavy.Rescue.401.S05E05.480p.x264-mSD[eztv.re].mkv
29f964052bde124e5828cd62e15fa3226cd42843	11863338887	6	Logan.2017.NOIR.EDITION.1080p.BluRay.x264-SNOW[PRiME]
29d7ee229dea15505248a5f211b64175bc28b157	2312926220	1	CAWD095.HD.zip
2990cd54352d02b7d6a3ac37f4c5c62be47a1e5a	344444531	1	[HorribleSubs] Ace of Diamond - 63 [720p].mkv
297afb791e5d9b0b9981c338c8b342249f9f4f5e	1379396370	10	SM-Miracle - e0631 - e0635
29eb19f947644f90972eedbf05d305d4daa62e69	633764125	1	剧情演绎风韵犹存熟女臊妈和儿子玩乱伦，最后内射水流一床
29655128bd9ef0c458430bb4c8d002e31a37cf98	1134466353	5	HAVD-848.波多野结衣.美人温泉若女将 ～色白美肌に群がる男汁～ 波多野結
29d5a442d105da87187bffa6f562a1b5eea1d0b6	22538690	2	YTD Youtube Downloader Pro 6.12.11 + Crack {B4tman}
29164d745f8029c022208360379135b8551e64be	2208591861	146	ATID232MP4
2a65e25d2d239c8db11f2efa3577265c3985fc55	1264833970	1	Gedonia.v0.27a.rar
2af097fa5824ca280b08c70467d9c2d58b5a7457	1463418356	4	帕特森.Paterson.2016.BD720P.X264.AAC.English.CHS.BD-DY
2a689075eb2410b90f1a361adcf738112991929d	17675364	22	[Zero no Mono] Iregui (COMIC Junai Kajitsu 2011-05) (English)
2a0b6d983c5c8138f7e8df31cb4311db517806e8	1365029855	5	Marvel's WandaVision Season 1 Episodes 1-5 [English-DD5.1] 720p HDRip ESubs - ExtraMovies
2bb9221b2be65736894f5fc9fab69f50d77aab03	714154657	56	05.MomsBangTeens - Brandi Love, Anya Olsen - Meet My Stepmom
2babf81ee7a9035c976ba25d84fea04c95de1328	2781454865	4	Egypt.With.The.Worlds.Greatest.Explorer.S01.720p.HDTV.x264-CBFM[rartv]
2b187223e3c7886ea9d3b214aa2ae934cc9a6936	1448595699	7	arm-644
2b35cf669b0ff49e55ab1df47097b9a658909c4e	612703517	2	WoodmanCastingX.17.10.02.Maria.Fiori.Hard.XXX.720p.WEB.x264-GalaXXXy[XvX]
2b2fb8f607151d7ba0cd225d7f14fd4073cd6272	219111054	8	Dawn.of.the.Croods.S02E13.WEBRip.x264-RARBG
2b924fe46f7a14116ca185785f71c99f26e8b8a2	1495468396	2	Never So Few (1959) Dual-Audio
2b580b7b7afd3a98183999045165fcbacbd7a7ae	52674728	14	乱伦现场-妩媚缭绕的美艳嫂子喜欢跟小叔玩3P
2b5b797592a6d096f7d53923a982226bf62f0fb9	734930510	3	The Company Men
2bd29e2faecc10de29a0855be677ea8fd7529cdd	1525133312	1	The Indian Fighter (1955) HDTVRip [Hurtom].avi
2bb60c03b794e69fb2c54362bc8d1a130f635bfd	1303941510	56	39.havd892
2caa9bff69d0d9cdf85c4c95198bfbbec336bf25	164628818	7	G0813020
2ce4890e09fc1af47a73fd46380a317dbfe9f56b	2257157347	19	Y066
2c0858598b87ec5b92b32912d07d86accd952f82	191998139	1	[SSA] Ore dake Haireru Kakushi Dungeon - 05 [1080p].mkv
2cf909a77347c5e8d555544249f472b7ff16d38b	368539561	19	Helevorn - Fragments (FLAC) (2005) (DM)
2c60fb1169dab04612acabed802d900ac61ec7cb	338620902	1	Kim.Novak.Legendy.Mirovogo.Kino.(TVrip.by.mikloeff.Divx).fenixclub.com.avi
2d213f4b120cc008251605dc53703a66985a3c03	927078542	2	（美女直播大秀 uun22.com）10 小宝寻花性感包臀裙性感大奶妹子，蹲着口交舌吻特写扣逼骑坐猛操
2daab5c48e8c0c401bfad30f113470c23da96827	7855223	1	Люкимсон П. - На кухне моей бабушки. Еврейская поваренная книга - 2008.fb2
2dabba25fb535956dd0f9df00247a9c806b32b93	22538672	2	Bandicam v4.3.3.1498 (Pre-Activated) (2-click run)
2dd104b2114c1d9ac131ed68973c0c270bc39fa6	907096884	3	Dyke Hard (2014) [720p] [WEBRip] [YTS.MX]
2dd4cd2d0002baeb2a118c50313582dcf2ec60ae	1189759951	9	Mama.2013.DVDRip
2dcbc44de403ce63ce522e099e06f44566329fbf	295653913	2	BigWetButts - Eva Angelina (Anal Angel) NEW 07 March 2016
2ddf39420c680993a3fab7197442570492aaa1bf	1835008	1	setup_wm.exe
2d42f86d5f5c84b1453aef8cec3efa1734e7d3eb	1462292384	1	Swamp.People.S12E02.XviD-AFG[eztv.re].avi
2ebde538b8bb5d6d94c4c12b5dc9e53af8637118	2149056745	312	SDMU844C
2e5551bc611864fc8ce1eaf381a3820b9037431a	355651498	1	西装哥开车接女朋友下班，这女友也真饥渴大白天的让男友把车停在路边车震高清无水印
2ea32b6435fb77c29568edc67bdecad9e399d520	4661884972	2	WildOnCam.21.02.05.Raven.Right.Solo.XXX.1080p.MP4-WRB[XvX]
2e315c0a89650b76f53fda482e1b31e29d79d621	642231951	58	0521-28-SD
2e7b6fe2c68b18b3dec978ed11a00f4f83ef9baf	4407709268	6	梦幻天堂·龙网(lwgod.com).720p.飓风营救3.即刻救援3.救参96小时3.加长版
2e0e1cd1044853863c236bd6661b9fcbab8c61de	1443879306	1	vivi老师.rar
2ece28471963262084f25f02913f0dd6b24429e9	965576133	1	Classic A Family Affair 1993.avi
2fd43cee3ea043e189529ce5386969c243afcf09	314304938	15	【冰山幻客】【sex8.cc】Tokyo Hot k0286 山田麻矢
2feebee90b95696d2587bdd871f815f8b982d259	659650133	3	Gaslighting (2021) [720p] [WEBRip] [YTS.MX]
2f3fcbd18fea7740a8eab7b8d8323c7c36accd71	84356243	9	877419187@www.sis001.com@公厕强行要求对方给自己足交
2fef91d65eaf5664df6560735de267a537d5ce7b	339256814	1	Ooblets.v0.6.5.rar
2f07b8e1ab1dd4090f25aba0f4298eb4d0630686	696120876	53	1pondo-021717_484
2f14fa0de4bce43bf40e569cb19a1f45bb843287	829917712	3	[ThZu.Cc]精东影业JD010初为人妻-小悠
2f4cf5e15fe3b15e21c0f5ff832b971df6b252ce	239250121	1	[Arukoru] Date A Live III - Episode 04 - Transformation [1080p x265 10bit WEB Eng Sub AAC].mkv
2ff290292bbc897349b6b0c4f669badab82116f2	1138213873	145	MKS03MP4
2f1fb5809b428c70b73a0d120c7d45b8810145fd	196339844	6	【英字720P动画】toshi-densetsu-series-1-720p
30581dc7333da38fd5bccf7d6cdd66ea9da5e63c	801744	1	The Umbrella Academy - Temporada 1 [HDTV][Cap 106_110][Castellano] - Downloader.exe
30215983db9c0d1178fb8acd89e71a5c54bf6258	1358766344	1	暴L行为.BD720P高清英语中英双字.mp4
30a57b887512d085ec8ba474a4529cedf8942e68	1617339952	7	olo@SIS001@DSKM-152
3006acc38119cc2719ba0b2f7949912c7e83ae79	1909421861	5	200GANA-2420
306b4143937c54e6c9d2e8d3d9162a54c0c6e97c	216555969	5	3DMGAME-Mad.Games.Tychoon.vR1.170112A.READ.NFO-DARKSiDERS
3007c79c69d34e0b61184cc5ccc8c1e43146138a	1369243097	30	09.AssTraffic - Selvaggia
30364b57cfb7fbf3922a0c4ecadd2ba3c0fe5c98	1114470238	8	暴力街区.Brick.Mansions.2014.BluRay.720p.DTS.x264-CHD.264
3012a5d37307df231fe24b32881260e56319f3af	1963409816	3	JUX-062
30aa6dfffd4306e922252fedd7818613306886ba	306983118	185	4345
3199b6fcf8cc6569aa156f2ae70d3814d07ba40e	26186714	1	Kinky lesbian redhead abusing her sexy.mp4
31de29995757df65aa0364db9e50ba230dd63120	732183465	2	Przekleństwo Frankensteina.1957r
31bcb7edacd7056e936062b3c39d1903b9c8d535	343002361	1	[HorribleSubs] Gintama - 297 [720p].mkv
318c4b5a76827c6f9282d714efcec64ed0df4f4c	156270408	1	Best Indian Porn Ever
31a695b34f0bbca13fe8af25b138434408421065	51184858	7	Hal (2) feat. Gillian Anderson - Extremis (1997) 320
319f450ff01342f8f5cdf12bf5d06edf547cfa74	648424134	2	ClubSweethearts.21.02.05.Eliza.Thorne.Eat.Me.Up.Before.You.Go-Go.XXX.1080p.HEVC.x265.PRT
3164a9af07d44ea68135daf79e1eae32251d5d80	35775316030	8	Wolfenstein Youngblood
316faa51f3439f15660af8986d7748d71480319c	2695763650	1	ALSScan.16.01.23.Kymberly.Brix.Down.Dog.XXX.2160p.MP4-KTR
3115165d43c6f3b379523efd687a5bffe0eefee4	280881787	3	Rich.House.Poor.House.S02E04.HDTV.x264-PLUTONiUM[rarbg]
326489a107237d1e44ba7250109475ad54ea5507	93053041	1	Thats My Ass 2 s4 with Vanessa Leon(RISHI).mp4
326e7c0e900a4b3cf6e5d64915eac22011ac8f20	27191502	1	[Hisasi (Neko wa Manma ga Utsukushii)] I'm in Trouble Because Sena is Just Too Cute (Boku wa Tomodachi ga Sukunai) [Eng] {doujin-moe.us}.zip
3212c1aaa65210612334f39258dd942fbdf95c3f	2027260576	5	Los espabilados - Temporada 1 [HDTV 720p][Cap.104_105][AC3 5.1 Castellano][www.PctReload1.com]
327c70788193f5b6e75a64d1272f4aa0d28a3854	20734181	9	CCleaner.v5.76.8269
321c2bdd48b4c83922d154bc00f81e2f0cd6ba57	149911	1	u-he Zebra2 v2.9.2.10409 VSTi VSTi3 AAX AUi WIN.OSX x86 x64 - Downloader.dmg
320c986d7e98ded1c460641dfc62aaa40bddcf64	48197165	8	Matt Maddox - Son Of Samson (2021)
3219ed73be62a6f1b037eba074930d19fb05168d	269639354	4	滔滔不觉@草榴社區@男友竟然能看著未婚妻與其他男人操屄玩
3241718d80cb586cf69dc257bfcc059af9bc6690	9301311306	5	Disco Elysium xatab
329778e989bddf5a0ae3279bc885fecf88cde7ce	1801905917	1	一路惊喜.BD国语1080P中字.无水印
32ff7efd53b09fb93e1f00888cac9f7649cfc4e3	729835266	1	Rite of Passage 10- Embrace of Ember Lake Collector's Edition.exe
32ecdeb85a845f859c961961d87981e9bd7785e4	1931849728	1	EG_5_DVDRip.iso
329a2c03484b21fe9f417b7eec549eda4c3f1def	254669235	1	[KinkyFamily] Kate Bloom (11.09.2019) rq.mp4
33c0c07ff198f09bb88a7a00b3e8284f52d75d06	2046845186	8	[ www.Torrentday.com ] - Kiss Of Chaos 2009 DVDRip 480p Xvid AC3-THC
339107b92bee30246f502f09136b7d5c66b4c221	2589790784	3	[psk.la]Tokyo-Hot n1302-FHD
33a6492cabffdf1df681540a08ff4b6c94e9c860	325583093	13	im520@SIS001@VAGU-043
3314790924fc45dd69b537016c9eba9c4e1cb167	3308494281	1	NewSensations.18.11.03.Mona.Wales.XXX.1080p.MP4-KTR[N1C]
3392b36837f965c9983a88027a85ff68ff3adab0	1402844429	4	Gaslighting.2021.1080p.WEBRip.x264-RARBG
3361e0707a4349d00b752d0dde090d088c709ab1	1201762564	37	8400327@草榴社區@妖艷嫵媚美女給人清爽感覺極致誘惑 賓館淫亂老公拍老婆與倆男玩3P國語對白 可愛丰满性感骚女友貌似不情願的插逼 木瓜奶的媳婦被我搞疼了让溫柔点
330ae47781e0ac2c86b1a2bdddf8be46ac9fbbf7	1452662502	26	200121香奈儿主题宾馆皮肤光滑细嫩美乳翘臀妹5
34954776aa34cf352fe508f07ad477d721b71306	30662429	1	System.Speedup.6.9.0.11050.rar
349fc27c7eb311f37a819a34befae2b0285a4f0d	2830127824	2	Walker.S01E03.Bobble.Head.1080p.AMZN.WEBRip.DDP5.1.x264-NTb[TGx]
34074dd1df31281fb4a986861a77821fe3c47717	1846746743	5	[OurRelease.Org] - Deep.In.The.Heart.2012.DVDRIP.XVID.AC3.5.1-26K
34e6769d2ff78e4fc20fa7a6da4418664f629e1e	1212678161	17	queen.135@第一會所@LOL-086
349f70008148681c89b73af25e856742c1b13552	22538239	2	IDM UltraEdit 27.10.0.76 incl Patch
3462842d5cbf3715a7eb18181e441bde7d266b6d	565992670	2	Wanted.A.Simple.Life.S01E04.WEB.h264-WEBTUBE[TGx]
34c2f0e99bb13f4cf4223b448718a3a1bb127f71	7469586612	19	200414國產合集2
34c4d0e696ce2c704fe69084ed193d8e419f14bd	719788934	14	System.Shock.Enhanced.Edition.v.1.21.6-GOG
3471ab5b286fffe6c62cc1c6f1f03d77ec0b93e9	1775825154	3	Nubiles.20.04.26.Monica.Gold.Two.Finger.Orgasm.XXX.1080p.MP4-KTR[XvX]
35baff4116af086ae224c12d0d856994893f8856	436844853	1	Martin & Jackie Sandwich Cain.wmv
35646daee488354b263f52a8608fe38531e0a659	515899452	10	TVBOXNOW 瘋狂辦公室
358824753043ab49a06055e7f1fca270fb912159	1312696162	122	OBA016MP4
350a4535bfbcfbbaa9c9ac7c7c46ea5685c1007a	1521899	1	[一千只猫薄禾] 王者荣耀 王昭君精灵公主.zip
351786683cc32c945ea12acd8328b6ef2b9f7f8f	12662433699	11	[WILU]Podbój kosmosu S01[wilu75]
35847f19117e55411f0b12d780b39b1fe685a7ab	3812030003	138	mkd00209c.-fhd-mp4
3581dbc2123454945962fc595ff66ab49e42a6c2	742220877	1	3618AmandaTateAmandaTatesBubblingAnalCreampie
35455659b1461252773614e9e7a0b728e3cd97df	461650297	2	GirlfriendsFilms.20.08.11.Vanessa.Veracruz.Compilation.XXX.720p.HEVC.x265.PRT
3530f6a1ac30ff072549913f36700dedd75ebef4	44444339	1	50 Cent - Big Rich Town (feat. Joe) (Explicit).mp4
361cf86d53456b8bf098d7d34a647dc688b9a420	237283963	1	Bucket.S01E01.HDTV.x264-MTB[eztv].mkv
36dee8bf7955507335eb1379f1216c18a84f1e20	562840250	8	[08日本剧情片][入殓师.Departures][DVD-RMVB][中文字幕][YYeTs人人影视]
3687af5a376bd4c065e6f450e164a86090f0ac46	22538141	2	Warcraft 3 + Frozen Throne 1.21
36e0ae7f274c1a328760990bef55424afd23d150	7596238009	3	Batwoman.s02.HD1080p.WEBRip.Rus.BaibaKo.tv
363a25ed36551fc27c61eac81c932d18fa405266	780542245	1	Cosimo e Nicole.2012.HDRip-AVC.mkv
36a61ea0eeea5e9728eb7bbee855c9a37d40a0ac	405457	1	As Cruzadas 1 - A Caminho de Jerusalém - Jan Guillou.epub
37c99f1b80de06c081f026e46ffb85ca4f276226	14167902	27	(C78) [Tear Drop] Physical education (ToHeart)
37b9c6ff4da983545e5b1529db4c3c416cd9bd3e	8489650	1	Internet of Things with the Photon - Learn how to build exciting Internet of Things projects
377352bbf0d3a39da00a3e0cb054c3789f5371d2	7697809266	2	[Thz.la]sdmu-669
381e18bcde4d3d990a4d8ac2ea5c83f8417d4911	423711994	1	NOVA.S48E04.Beyond.the.Elements.Life.480p.x264-mSD[eztv.re].mkv
38468bf5c6402d716fb79352083589f368bbbd2e	1232989128	1	JUY-00338.mp4
38144d12be2239d893f45a23476fc2cf8f341b38	2392415338	19	IPZ-097 ガチンコ4本番と大量一撃顔射フェラ 来那
38b652b19ce245e2a1403141330d07bbcbe1595c	4197228227	3	COMANDO.TO - Uma.Ultima.Vez.2018.1080p.DUAL
383677add04001cceae4deda9ee33c5d90640060	508316428	9	HGC@0507-【新年巨献】3-性感漂亮的牛仔短裤深圳小姐姐KTV唱歌喝多后被朋友带到酒店手脚绑在床上尽情啪啪拍摄.国语!
384c285f470282ce1c7efb0c7128426c47e616d4	1711701461	60	ABS219
385b06190eeeb95686bed78fb84f27b0a30e1fd6	102055126	1	PaigeLeather.mp4
39ea9f1bd49589c6108dfcd5fce20c8661e4d51f	1920756209	1	hnd00614.zip
39ce67e596270fa451374e8a31e7f2d6de93ff4b	382089051	3	MeetSuckAndFuck.Dominika.mp4.5.november.2014
39e8c1b155b04e6ac6c8f7400e97780857df8d72	21320365	1	Caballero andante - Escape 3 - Droid Factory.cbr
39c83653e297e8411853a050e55197ee9ccfa477	737779959	4	Click.Bait.2007.WEB.x264-ASSOCiATE[rarbg]
394873616f3e46cc19ed6a6f7d2b8b69933961b5	113915400	1	[SSA] King's Raid - Ishi o Tsugu Mono-tachi - 19 [720p].mkv
3ada75f216a6cc0ff6cbdbeee97d906d70787832	55560838	1	iReal_Pro_2020.1_MAS_In-App__TNT_.dmg
3a57f74a7bc50841a1dd90498bd2796f0a549942	477482522	1	Hill.Street.Blues.S02E11.HDTV.SubtituladoEsp.SC.mp4
3a4b2bcf59af2fa3e5aa6c131bcbb10b94926687	8503979	1	02 - Dance Monkey.mp3
3a0c43a77ad7497f877f0339d28ee408edc5678f	2002751671	15	C0930-hitozuma1347-1080p
3af4370c6f758e211b8086228530994c1b155b8f	429656712	17	wengdeiuh@www.sexinsex.net@豊満ボデ 百花エミリ 有沢りさ
3a1ad39565b754d03759aa352d9c3bb8dbcf5792	1577200208	8	[2011.05.04]警察学校7：进军莫斯科[1994年美国犯罪喜剧(HD)]（帝国出品）
3a5dd1e1d6f6391ec02886d171602b2739acb698	2037701289	26	one2048.com_SIM-053-SD
3ac26846040c7071c45a94051f77864d3cdc12ae	265336206	8	O&O DiskImage Professional + Workstation + Server 12.1 Build 145 (x86+x64) + Key [CracksMind]
3a21e04a0f5903358e361c87627909bdcaede8e5	16336689	3	Cryptic Crossword Puzzles For Dummies Australian Edition
3a72ca48f322634dd0d9271a02c5f12a0aa32be5	955441353	113	jufd841
3b1df28a041d4aa2c37bcf5f3eb01671305d820f	1456472886	25	Western@Bedtime Stories
3bb91c4426294c8b45ec22ea2064440d16fe651e	1308694995	14	oae-133
3b38af9faf82fe11709ceba90d785502a808f42b	438542630	1	[Golumpa] Listeners - 11 [FuniDub 720p x264 AAC] [73AA013C].mkv
3b89cfc6fe23e978726602dcfbaade43851d8151	2117714548	26	pacopacomama-121219_219-FHD
3baeb2e7de6ddb20e33d2d0024e60d97cbe9985b	404572283	1	痴漢電車男外伝痴汉电车男外伝〜伝説へのチェイ.zip
3b6af87a6e73577fad6d884a02d6d29099a50262	5907042229	3	HD_dmow-215
3b053e1ea578656e26d5430f939475fd2d72776e	1938287479	4	0927 -347
3bd6e61460871f37feacc38fc1125f50c9ab8388	1376522415	11	[P]BBQ002 素人ワケあり面接蔵出し映像
3b0e6e0047151a2d353ef47cc260b2d78d017c9f	164626432	2	ivi
3bff71cb7d72d1f4defb18f91f9e1fd474a4c5a0	1255655883	62	37.natr200
3b305ffd6c64be4235c2f0ce17e27302f16bb8a6	371789397	3	Jay.Leno.2012.12.04.Khloe.Kardashian.Odom.HDTV.x264-2HD
3bde89fa1dc0e32bfb97039827f41a593b70b7b7	801744	1	the-vanished-2020-720p-webrip-yts-mx - Downloader.exe
3b40d1ec98abff9ae37cd4d15dfc27b96a251ee7	7046018722	1	Session.Skateboarding.Sim.Game.v0.0.0.8.zip
3bbea74751f97db5902531d537df6636e1f4f6e7	1362335744	1	Otmotka_2_peremotka[torrents.ru].avi
3b8d123e7404643d1207e1df80125d60a2b4f6f3	1213275235	34	JUY-042R
3b1cef27c1351456f169de12c2acf1b950fe48ff	819104282	1376	Loopmasters - Mihalis Safras - Nasty Tech House
3cddab94dd7229728a4119eded61b2133a809300	1467978169	2	Arctic.Blast.Attacco.Glaciale.2010.iTALiAN.DVDRip.XviD-TRL
3cb7669ce904ebc12b82b96e44bd78552002723e	747524411	1	Saving.Lives.at.Sea.S05E09.WEB.h264-WEBTUBE[eztv.re].mkv
3c0c2f50121054ea8f02c816b46b0cdf1f573350	1889633079	6	10musume-042813_01-HD
3cb191fc21f48506b0c92dce76de28f3afe16060	71631095338	25	[FileTracker.pl] Z Archiwum X - The X-Files [Sezon 09] [1080p.BluRay.x264.Multi-NoQ] [Lektor PL]
3c0738e84aafad88647ba0a52bc12c001e19367a	201714735	12	Torrenting.com - RKPrime 21 02 04 Jennifer Mendez Caught With A Camel Toe
3c302a6dcc0b511b4688688f0ca9b35267f210b1	215095843	12	【猪头爱爱】【SEX8.cc】 國內某無名皮衣女郎大尺度挑逗 洗浴自慰視頻
3c7a5c261aa546fa4c61020a21ff7f49c84062b7	1966261794	7	3DMGAME-Ys.I.and.II.Chronicles.Plus-RELOADED
3cc8188ce3ef6febf584e4b4cc28d8587f1715d8	1485738067	30	08.atid312
3cdfdcff41cb5fbf24d59b6733e80118d8c1cff8	4204995552	17	MIDE-406.HD
3d53bf537ff10d286ba6876adc91cc3ec81be926	20000233351	95	The.Outpost
3dd109892ee09787256697535080abdf7850bd48	364792801	7	www.Torrenting.com - Pete.Davidson-SMD.2016.WEB.x264-DEADPOOL
3d480e1aa894a636c04b860ce534b4ed5be6fb50	1251273744	28	Sporty.Girls.4.XXX.DVDRiP.x264-PORNOLATiON
3d1b55a41bf937c6dd0593631ab99330a601b365	792757170	1	{Sweetsinner} Dana DeArmond, Seth Gamble - My Daughters Boyfriend 14, Scene 4 .....(24 September 2016)....720p.....P4U........mp4
3d17f64c6659eb0c5ef4f7ea76a2787cadc05378	2165954721	1	Павлин (Kong que) (2005) DVDRip-AVC.mkv
3dcf837751835285f5bedf36f6f42cdb395ba27c	382859612	8	AlannahMiles - The Greatest Creampie Eating Clip Ever
3d19ff7dd389b5004a64dab2ae22dfafdfbb009f	527696123	19	赖蛤蟆@www.sexinsex.ne某自动车贩売メーカー本社勤务2年目
3d84b013b91878c332cdc9588fbf9be9d7fd29a7	597814882	1	33.zip
3dccf3ed7c3091dab8789506d130b0f9b5fe93aa	2522761016	92	[3D-Hentai] [Double Soft Cream] 睡魔 Episode 2 - Suima - Episode2
3d1eea9f46b25405238511eb95498210c5abb7b8	17355627883	39	Z Taming of the Princess醉打金枝1997GOTV W
3d8c64360d25ea085cbd740bd7aa6f4a91fd91e4	1118530932	1	Leanne Crow - White Crystals GoPro 2 - 020521.mp4
3eb27ac92d3a1b8b7a49d15ef34841b0adfc4861	2550693702	5	Chicago.PD.S08.400p.ColdFilm
3e5f4996759f6a0248be62e52bd0529c7b1ff171	1527747131	1	Jersey.Shore.Family.Vacation.S04E11.1080p.WEB.h264-WEBTUBE[eztv.re].mkv
3e15bc4f1d99153e2b51f701061bc7986034c6a9	998452245	1	[MagicStar] Red Eyes Kanshi Sousahan EP02 [WEBDL] [1080p].mkv
3e222b0c4ba8f07fe6e2c35486e42987d800c9ae	1758679040	2	Harry.Potter.and.the.Prisoner.of.Azkaban.哈利波特-阿兹卡班的囚徒
3ef824340784a2acb568d33e85c898ef023b4ab5	2103269502	30	SW518
3e4e770144d1d1d972d765bc61d238fe88a5fddb	667548603	980	Models_Boarding_School_Stmackenzies_04_2011_[tfile.ru]
3eb914e27f5455ab7badca6d172b028215f6faee	628689271	36	微博软妹子@幼犬少女收费套图+视频合集 对白清晰蛋叔微信约草风骚实习小律师穿着情趣渔网内衣草720P高清完整版
3f657900f94409caf5872b7144f3b110c6beb40a	573966790	1	The.Stand.2020.S01E08.iNTERNAL.1080p.HEVC.x265-MeGusta[eztv.re].mkv
3f2ce068409157c1f581ede0545d1cc09339180b	650379480	13	吴天@第一会所@Lubed - Lily Rader
3f19e496819f10962ca94bd44f00590de7886c21	1976537216	43	1pondo-072713_634-FHD
3fb4f186fc34c4a63fe6780968b487c34bb4f225	1287626448	3	#_JID04
3fc6e53648d851eece6ea193539baee4582c572f	1133460534	3	SDMT357 Big Tits Mania Sexual
3ff764c6f3609075eb3a07904410bee2a2103660	146378990	20	Various Artists – Spinnin Records Dance Top 20 - Best of 2015 [iTunes Plus AAC M4A] (2015)[PRADYUTVAM2]
3ff056ed507a3abe881b34c8f1c34dddfb626d79	134751466	536	Jenna Sativa & Lexi Belle Wet Panties Scissoring
3f988191849c565bb8acb090e85bb83f17693782	12109015628	47	上善若水@www.sexinsex.net@【TeenFidelity】系列三部高清合集
3f11c5f0b711f37a5bba2f9e7e2e957e8223548e	333063759	1	Conan.2013.09.23.Cast.of.Breaking.Bad.HDTV.x264-2HD.mp4
3f9e4de7a95408255d0351b0988cfd927efa75c1	4172231847	2	I Saw The Devil 2010 BRRip ENGLISH AAC H264-ETERN4L (Kingdom-Release)
407ba0bf22c630674f75fd32c8e454580764d707	313453643	4	推理要在晚餐后SP~船上侦探影山
4082165c569d957d8bdae5d0f66d287dfc73ff19	92101449	9	[5月][傲娇零字幕组][旧番填坑]森林妖精蕾米[无码][mp4]
40301c4a31f20593a9b722715148a50536fb9a1d	423399959	1	Brooklyn's Big Icy Tits.mp4
40526fc453274ddba50b62ea185a401b0963df65	965026480	22	My.Wifes.Fantasy.6.XXX.DVDRip.x264-WOP
40f9442908d9d8b7387f97c23b3c9a13b538b6b6	24313550	1	[チンズリーナ] ブラ婚ウェディング (チン☆デレ) [中国翻訳].zip
401a2b59019a062133879c28b9d8091e15b2bcb7	11309185152	9	The.Mist.S01E01E03.720p.WEBRip.ColdFilm
405c147ce92d246872a10f62f9343e49443e2ac8	9412661230	1	Inside Llewyn Davis (2013) [ukr,eng] BDRip 1080p [Hurtom].mkv
4015844a88aa2ff3794bcc88ea9258db088de0cb	66049415520	2	Nioh.2.Complete.Edition-CODEX
4014c54e95ef08a6d77d6d8fd8564cdb2a584fe6	342973426	1	Cory Chase,Sloan Harper Penthouse Centerfold Fucks 042019.mp4
401816f8dc279612d0117871043c4289b95bd3f0	192744920	6	www.lyrics.lol - The First 48 Presents Critical Minutes S01E13 480p x264-
415b944ddf13dfce50e5432eafd2b397726a141c	1314132025	4	The.Price.Is.Right.S49E48.1080p.WEB.h264-WEBTUBE[rarbg]
4117b2afd1d0a128e56fb39488f6d764698e1059	685421599	11	滔滔不觉@草榴社區@時田夏穂 25歳 ＠人妻斬り
412fc01cb3b65a1199ee81ed5fbb05d3dcba1669	419229296	6	【淫满魔女】BlacksOnBlondes - Krissy Lynn
41bd7edbe8ccd98d07fb8b6da9edec8d3b44487e	1168951784	7	GG-110 超認真的爆乳女幫傭 - 長澤梓(中文字幕)
41d3559c4a2cacd4314efd845e85bb6a6052058b	309164983	26	200122很有韵味的极品美骚妇激情啪啪流出 7
4118f57359eba945e223b92f9011d56e6613f799	7183270435	4	Autodesk AutoCAD Architecture 2018.1.1 + Keygen - [CrackzSoft]
4196a505be4d80f4419e3df2c5c3e88dc52bd8bb	728168758	2	Frederick.Wiseman.Boxing.Gym.2010.DVDRip.XViD
4111f4b94537c33a4ba93ae79a2b19b62909c8d3	868436702	5	Sevenes (2011) 1CD DVDRip x264 AAC 2.0 ESub DmE(www.mastitorrents.com)
4142fd7671df9af868a6bed97370c35b5ac2b8d6	734129513	2	Solitary.Man.2009.iTALiAN.DVDRip.XviD-T4P3
42378881567a5f1e3078dd7c85e8a249a5f68905	1095733121	1	순간의 선택 당신의 골든타임.E01.210205.720p-NEXT.mp4
42dc2062916e70642f0694a2a75beaa999944126	4389544857	14	MCP-021 David Frost Once Upon A Time (2008 transfer) (DVD)
42f5588a6d7fd2b9bd72a5b521ef11786856668a	102269520	1	[HorribleSubs] Battery - 10 [480p].mkv
428577fef1222bd700a086d6dc1e710e2588839a	697481186	10	28歳専業主婦あやちゃん
42ac24e21f5646e0f2193a6118bebeb2972825c3	3778485958	2	BBC Proms 2014 - Prom 65
42752e4c5ec00afdc0df9d957b18ce1bd90537d1	147621544	1	[101201][ALBUM] オムニバス - 恋のうた WINTER BEST [320K].rar
4236ca777450c0396cf6e5b07347a50c450a34d9	700205470	3	Os ultimos machões dublado
437c946bf59eaf218a7ce40bf922bbe20a4c7973	16491498	20	Revenge CD - 20 ways to calm down your noisy neighbours
43e23f2c5a8848ff0257df3c45ecb2536dfc1c8e	1072284575	61	17.Neighborhood Swingers 3
43108e88dcd085f5c111813c429f6078f458a69c	1463998464	1	Andy.Williams.In.Concert.At.Branson.2002.XviD.DVDRip.avi
43c6a5b115bc406b4b6c5119957f6bdb2e0647ac	8648419744	2	escarlat
4327a13851f1848db4d9b4f6aa90e611b0ec73df	131550835	1	74 sissy made bi.mp4
44fc8c4d946cb9441169a7feb1d2664b9f5c021c	1198563247	1	Adobe InDesign 2021 v16.1 [TNT] mac-torrent-download.net.rar
4470f6c30b96fde8686db4bd8b01a6861cec6521	1079049185	3	vec-231
446a59cc4a2237426d9767a08780b2d30fea0e6f	99145066	7	G0205024
4498e1a6442fafae4a4d50425905b463d9eef3e7	3131378781	9	olo@SIS001@0208-精品合集-05
44660ba3c6139456f5612b00f9960ee54bd5e3e8	1900470272	5	Intensitivity 4
4587c5715d3abfb51f309f99228eba7441ceeb12	79648976	1	Watch.What.Happens.Live.2021.02.03.480p.x264-mSD[eztv.re].mkv
45551e5ff0b76858efc7fd31408d21185bf33581	193747330377	268	Мега доступ Абонемент на месяц к 200 самым популярным урокам по рисованию для детей [artpandaonline.ru]
45fdcb6218b690ce052f6d6933174c1bff51ffae	417021891	4	have-a-nice-trip
4599132ac8d348386139d874763c2411800373b4	1468243620	5	VNDS-2599-AVI@Touch99
4543effd9a95a23e3918b1b913153c6d426294f8	47376617074	1043	Spy
46d5d0587c69401a51a26495b9061581a4042e03	317710271	3	Talk Dirty to Me 4 (US) DVDRip [.mp4]
46c8db910a72d9f0a60ad3eb112c5ee93c3de907	591406742	29	Webe model Sharon sets 1-29
4684ade004324a94a753be1ad987ca210688cc0d	1198208052	23	秋吉瑞希
4615493ab29c6ad75021e8d664574f8a77972a58	624218629	2849	2021-02-06漫畫2
46df82e653c72af453ba6c5d7daaff62231b7a62	895221934	106	062311_099-carib-vip9920-mp4
46fd219df455177437c6d2f6f6d7edeba95bd967	245675589	205	Александр Бушков
467eafcb2c6a2e0b3fd3fa0bf0bf9fb7ceb1d793	771036607	16	扎着两个辫子高颜值网红妹子和炮友啪啪，深喉插嘴后入猛操不够爽跳蛋震动，骑乘扭动边操边语音
465e24d843b6d70b8f13fb46b8508cc3f05952ad	13743672	5	Corel PaintShop Pro X7 15.3.0.499 (keygen CORE)
476c34044e2f1069e14be2496accfc0acb208621	2547476	3	Sex Without Stress Couples Guide To Overcoming Disappointment
4756dfa34a2564a54d1a05141371bef3e5147f42	79424598	1	Two.Sentence.Horror.Stories.S02E07.1080p.HEVC.x265-MeGusta[eztv.re].mkv
475869c84ffd29bfefb85e08685a7f0438962e85	735520326	7	8400327@草榴社區@東京熱 Tokyo Hot n0847 美嬌娘華麗無差別中出 浅野ゆいYui 清純美少女無慈悲大膣射
47126b61d074a960e7e6b25e64752fc84b3d23d7	1466343545	1	爱的色放.mkv
48b498d7fcd1e1469889b51e1adb4b4ebc50e23a	587684051	1	[APTX-Fansub] Detective Conan - 993 FHD [DF3E33A5].mp4
480229771745aa148734a884a1416457e9844741	11840276948	49	30-Boukenger
48b65ada3ed65a3e729a986782b2daa9c8a10972	451580929	1	September Reign - Black to the Future 020521.mp4
48ca9779ac783bbedfe37286e5c44fb231056277	838690413	2	The Last Letter 2013 UNRATED HDRip XviD-AQOS [GloRG]
48e8529c57cbf7db5d2b359f2cbf4aa8fd9d35b9	2010496205	1	Occupation.Rainfall.2020.720p.HDCAM.Legendado.mkv
48669c8d2a14bd8433cde2cd2c138dcbb4ae5cd2	397613514	2	PlumperPass.21.02.05.Marilyn.Mayson.And.Tina.Tonguering.Double.Trouble.XXX.720p.HEVC.x265.PRT
488c2d544673917849bce9ee06efdc8b649800d7	160224627	9	Just A Pilgrim
486a725af7968c379ff448ccbee3f88d4ac89ddb	348612026	74	heyzo_hd_1333
4832d190f12faa0a8abd7d69e05e0423442b2cf2	871782588	7	heyzo-1382
495b02bbc8789956fe40df5c18923cc5cc67b33f	196139302	100	前戏骚逼第一次被舔 广东·汕尾
497dd8ff45591e6a55021cdf34603a8cc4fc4371	1474822144	37	Sounds.Of.Obsession(DVDRiP)
4944297e56507bda906511afd3dec7ad3494c579	231474277	1	049 My Wet, Pumped Hole Fucked and Squirting Orgasm.record Live Stream 13_NatalieFlowers_1080p.mp4
499cbb56b31cffd6ca99415da243ae2cd2afd5ad	85500357	4	Brandy Clark - 12 Stories [2013] ALBUM
490b5f7f68c56d95a64da463ba13669a68b13ce1	1648387355	13	IPZ-353
49a1851eb90408bdee92a7f2c7484e8be894dde4	341763166	3	Loits - Must Album (2007)
498aa20b5f4fff1d2225fa4230aead21664707e7	3952427	1	True-Damage-Becky-G-Keke-Palmer-Giants-Ft-DUCKWRTH-Thutmose-League-Of-Legends-SOYEON.mp3
494a3ab3d4f2b4300df9d3895d24ef2a700d35ff	2080563213	1	[蓝光电影网(blu-ray.cc)][妻子的情人][720P完整版][1.94 GB]
4ade76730239f8225fe170c13649bddbf9b55310	72012415	1	韩国超美TJ.asf
4adc7f02cb320688ae48f8c29edaca8e40c90d17	7166182681	9	Youre.the.Worst.S03.HDTV.720p
4aca991020a3982d8e297d7a1121bee520cd5b18	1300597426	5	C1012009
4a1932b49da7f8435eb97373f7018ed99ef5303e	891430229	1	Double.sodomy.hardcore.rough.ebony.anal.dp.mp4
4aaadd57d642e253a7639fe2968da65b362d5b4d	71518041	1	[SSA] King's Raid - Ishi o Tsugu Mono-tachi - 19 [480p].mkv
4abcff674e2924bea2efd9870d7e5479a32f47c5	4304959697	2	KAWD-938
4a44ccea83fd5d01b72e789522d4c24365071ee8	1444287664	1	[IssouCorp] Kumo Desu ga, Nani ka (So I'm a Spider, So What) - 05 VOSTFR [1080p].mkv
4a211e1ec89e2997876f7a4ed5e05fa6ac28a1f5	12681276791	39	决战皇城
4b7c9d3856fd9af8e04cafcdd4fb3e8cbe939e00	386621487	1	BigTitCreamPie - Cassidy Banks (Busty Amateur Gets A Creampie 08.24.2014) NEW August 24, 2014 SD MP4.mp4
4bf2927adb8044611b24fa81528c6660fdb37f32	342024036	1	[HorribleSubs] Folktales from Japan - 202 [720p].mkv
4b4320c7440a211e798517c1e31a10048993eb57	3632560710	21	Chowder - First 20 Episodes
4b87ea083892d005f51bef7b6ba8f53cba0e1567	811014349	1	Staying With Aunt Katie Version 0.50.rar
4b843d21c9fa6a82746cda4b767f0cdc5f1f9392	2796958064	5	390JNT-015
4b61b59116e45216020e083150be3284d41d5bc4	4846362	3	CzasNaE-Biznes - Piotr Majewski [.pdf] [PL]
4b04f053d06fa9313109193509259bb3649854ca	3029080596	8	Seiren - AniLibria.TV [HDTV-Rip 720p]
4b8110a636dbd6483b94978c291edcc900785fd2	655720626	16	Doujinshi&CG@gatt2009@xuhu.org
4b0b56ed1a1888435fd2df93fe05b8142b7341e1	1982883683	4	EBOD681
4caf9258a73db5e6fe8842a1e15d597f35373a07	1772409230	1	[UKPornParty.com _ UKxxxPass.com] - 2020-01-04 - Debut gangbang for stunning Tanya Virago 1080p.mp4
4caa965d4c224a2a8442772a2e7025c82d59e441	965149029	1	X-Men - Inferno Crossovers (2010) (Digital) (Kileko-Empire).cbr
4caf90e25e79699a58b4c4d668250b0cecacfa56	256780389	17	6IX9INE - TattleTales (Extended Edition) 2020
4c42cd37d515e56e331424b869873fd83734e258	6984151816	1	Raid (2018) Movie 1080p WebHD AAC Audio -HDprintMovies.mp4
4cab7f36dca6d2493bf5e8ad67cbfa0cb6e16e87	2242076631	46	TittyAttack.16.07.16.Crystal.Rae.XXX.1080p.MP4-KTR
4c117319ff941412b09851f5175a4675ea0f37b2	699593790	3	情侣自拍2018011202
4c8034d8229292ef0a39b78b193c0768b86c77bb	1888614164	2	花与蛇.零高清修复字幕版
4c92cbba2564ca3a21a7bc5f4f9e5804b15915d5	1497156676	26	200119直播搞逼的女主播与狼粉聊天各种挑逗8
4cca993b7bb559664f8a1baadddc26007cd660ef	157990024	14	20-21 (6)
4d0655d78ae9f945071491e9655f62f378aaaf20	2415875375	4	(MKMP-168)殿堂！スーパーアイドル4時間 篠田ゆう
4d5ca40a5b5354f22a28c26ab47008f6cbec7a25	379007750	2	RealExGirlfriends - Lea Hart (Asian Delight) NEW 19 May 2015
4d22e293f99c099313e7a4395a9f137983db102a	1800000683	3	布罗姆利的足球小子.The.Bromley.Boys.2018.HD1080P.X264.AAC.English.CHS.BDE4
4d26c6b9701690568a0c8417c2d80fc763962330	567037783	1	Der Prozess.mkv
4dcfb64ba3aaf0eb366459596f948d73ca6d3253	1087501787	6	olo@SIS001@isd-109
4df693c08aa9f896a64d6600aafd7e15bd119187	958410623	1	[ www.UsaBit.com ] - The Professionals 1966 720p BRRip x264-PLAYNOW.mp4
4d3ac93606ecb5a1ed067cef14eec37c185df0a3	1187588818	4	最美性爱姐妹花『醉美月神』双飞护士装女仆 和闺蜜分享男友大屌 无套爆操双飞爆乳丰臀双女神 内射喷精
4d66304a7e59afad08dba914e71c442f2db63ad2	873988391	11	Y729
4dd4b4caba56cf0797342466a9bc116b8f8381e1	8330550	14	LegAction Ann Marie Rios Spreads Her Meaty Pussy Lips Wide x14
4e5b2e42124c63431ea44e1a376da8213860a750	1596053762	56	65.ipx074
4eacbcb9153d419932bbd965f3f8c08c36b96160	1362950340	62	36.RHJ-341
4e5ba3ce76c30d1ec7a027e40d7712aa166ae667	367346573	5	mopg-026
4ef63132304ae57697edf090be28755190c4108c	4057870783	4	[DVDISO][IV] 小田ひとみ - ぽっちんプリン
4e5a59bb597dbc3aa80b0f23a9eafcbdbeff30cd	550337893	2	Time Tunnel - 06 - Crack Of Doom [DVD Rip]
4f53d4ee9e75720eb1f568251f05a28871c07802	398450243	1	Didi, 25 years old, porn star in the making 020421.mp4
4f85fa4ec2ebce5ec669cde0acb4f36803ec4128	2724959807	4	BIST-011
4fab9af98e96715a2a98ad3384884872e92ec141	162978793	2	The Heart of an Indian Maid
4ff4aa369e833850d6ef94471030fc96c2061764	12406667588	16775	Wallpapers
4f749e773d35b90c421f86e51033af427068acb7	377804698	1	Aage Teri Marji [Hot Movie] [desidhamal.com].AVI
4f3014d129c7dcc281765b979e341a3e52cb51bf	22538662	2	Adobe Photoshop Lightroom CC 2019 v8.2.1.10 (x64) {B4tman}
5038b4c4d5f4b011e1bf20b471c7710f463d2a35	5041759560	1	NHL.RS.2021.01.22.COL@ANA.720.60.ALT.Rutracker.ts
504ae1984a640a2b8a042dc29c7820b8eb66203b	2614944487	4	Zoo [BluRay 720p X264 MKV][AC3 2.0 Castellano-Ingles-Subs][2018][www.descargas2020.com]
50023b22710f6450d5cbc7aced3758f8b2ac44bc	1320605106	6	krmv00325-qq123www
5050785f892703b5ffa253a524f68083693d1ad7	16858355	1	[Horsetail] Kaa-san Ja Nakya Dame Nan Da!!! [Korean].zip
50aef4d6feeb807bc49fc860aca4dcb8d34e55f9	3300912	1	DesignOptimal.com - Set of Minimalistic Spa Healthcare Design Illustrations.zip
51fc37417923b6a717106db97e4f8161bfc2e440	18571097601	1	Lev staerkt 2014 Remux 1080p.mkv
518d4197f22164a538f23b9f23a3932920812a65	288280128	233	Prime Loops Glitch Hop Drum Loops (Sample Pack WAV)
51f7d0eed19d3d45cbde0e9360d205d587d41694	233858071	1	[Pix and Video] Claudia Ferrari (Wild beast - part II) 540p [.mp4]
51388337ff72bbf02c43b3c6303603832a72fea3	1039069937	6	upsm265
51007b75de6578b51aac79d0187bc1b98d36ead5	3673138	3	How To Read People Like A Book A Guide To Speed Reading People
512a0f8fdfb175264a0e08db56d22b83779b25f6	1449179136	1	Скованные одной цепью.avi
526be4a9c8cc8b432a5969f37a4c8c16d8171c27	608947372	5	Russian TGirls Rushana Kardashian
52778561e3259e68b3f4384ffd80b6c22d30173f	597150213	2	NewSensations - Brooklyn Chase - Pussies In-Pantyhose
52ed6f741d002ddcb907d9ae111ce4503f8e4a43	114679102	1	Young Animal Arashi 2016-10
52625e41e0cb08fda067771025e0a5d28282d766	1139543779	102	sdmu702F
526fc197d290a3dd6e71c022ee96689d040b6778	3527169180	13	www.IPTV.memorial - RodneyMoore 20 01 17 Lux Adara Beautiful Hippie Chick XXX 1080p
52cd097151b7605f1e76c9b946d519f528424791	253517770	1	The Mick 2x16 DivxTotal.avi
52389d8d43562e14c8da94ce412eb43af656589e	13543735665	2	乱世佳人.Gone.With.the.Wind.1939.Bluray.720p.x264.6Audio-NowYS
523c806c865f53db5f39f75fb1f89a917aa4c0a5	377046023	2	8thStreetLatinas - Hollie Berry (Horny Hollie) NEW 27 November 2015
52797c8bca601be31dc3dd38cebd7b65863210d0	412420577	5	1525.[1030.ws 首发]Milfty-Maxim Law College
531261de52469dd265ad808c9391f5f476602919	454003747	1	[YuiSubs] WIXOSS Diva(A)Live - 05 (NVENC H.265 1080p).mkv
538182361e4ce96ca0b7530d263ce8a5d68eab48	65023358	20	Stahlnetz
531d9eb1a34626e2ac4359f81f3f608ce59be84a	2966337148	1	Bang.RealTeens.18.07.16.Brooke.Haze.XXX.1080p.MP4-KTR[N1C]
53585149c5e431a677c17d06a387bcb2798e8151	252940014	1	marvels.luke.cage.s01e01.720p.webrip.hevc.x265.rmteam.mkv
5351e58a7fbb70cc56207d84532c840293572d52	241483956	3	CzechBoobs.19.05.27.Sofia.Lee.CZECH.XXX.1080p.HEVC.x265.PRT
53b84a990709287cc719adb7529d62c6a236cf60	691012359	25	【liu20081024】【sex8.cc】可爱的90后
531c60ac7282486566ae34eb4701dafea482727b	278482359	6	Supa Nova - Don't Break My Heart
532cefdd7994aad54a7a6889c44c7fab83f9898d	1478736791	6	dbdr-009
53619c6fabeca21b1a68d79118a79a090296789b	2182449300	1	Zoolander 2 (2016) AC3 5.1 ITA.ENG 1080p H265 sub ita.eng Sp33dy94-MIRCrew.mkv
53e20a197b9de51f63280f46e965c15febe519ac	5873144113	6	The.Chill.Factor.1993.1080p.BluRay.x264-GHOULS[rarbg]
53d55b2406a3b51a2b3b51ebe58e9cb0541e04ad	609230006	3	Jimmy.Fallon.2019.12.16.Michael.B.Jordan.WEB.x264-TRUMP[TGx]
5301d1b225d505cc00077f14f62c626d1d5fd6ed	1341279604	1	HODV-21155.avi
54ff441f4fe2c6e569803f74b840b1133c51d415	512753909	13	im520@SIS001@GG-172
54617ce564e7bd2851563edd744af0598b8cd25f	287758259	1	爱呦我的妈-20130723.rmvb
54263f0894b74cf6fc69b91d8aec8264034d9f73	210363828	1	ThirdMovies.19.01.07.Savana.Styles..480p.MP4-XXX
541b29740c2d9477498b1bc22c9e8b4a9292e176	466322146	2	灵异女仆.servant.s02
54c23732dcd2074439f0cf6f50ffe3b8f92fc389	239006174	1	ReadyOrNotHereICum Francys Belle 720p HEVC x265 piemonster.mkv
5444ac3551f4817553054299a03b5787df3475a1	590268327	1	Andi Rose - Bump Set Spike 020421.mp4
5423b5d0513207520a8958572b2fca8d8e25d0c2	1931533791	6	[TeenDreams] 2011- 03-23 - Updates [x3 Sets] [Upto 1944x2904px] + [x3 Clips 960x540]
5400590d94739f5a1b59db640e0e5ad5298750e9	469751893	27	2021-02-06-1-11
54d7b22fb709fb6eec6fbcbb0ce363390a6771e9	22755805	1	Sustainable Luxury - The New Singapore House, Solutions for a Livable Future
547457a78444a1f4586e3be78e18bddc1b5560ee	233853778	1	[Sakurato] BEASTARS 2nd Season [05][AVC-8bit 720p AAC][CHT&JPN].mp4
554be07e19b0de1e6c962fff22cad8ab90cef70b	149920	1	The Sopranos season - Downloader.dmg
55b8204a5965c5a14c0c11224e84dc64236ee010	830242	1	Далай-лама - 2014 - Исцеление от гнева.pdf
5522373d3c28f906926218092f9ba8e67c5f259a	5720723	1	[Sumiyao] Mona-chan Ecchi (Genshin Impact) [English] [Hentai_Doctor].zip
553db8c88f4879b573093911363c608d8c3443ab	244764749	1	Schitts.Creek.S06E14.HDTV.SubtituladoEsp.SC.mp4
55d36744d1dd0a1d56461f386273c7bc6d8a68c9	732858388	30	18.21EroticAnal - Lolla Shine - Morning Intimacy
56e335c2bb9fb4bbaa12d828215dd300b63bcf02	475583505	2	Revenge.Prank.S01E22.720p.WEB.h264-WEBTUBE[TGx]
567be716f22465476333410c86af8ae7e11fcf31	4762011	1	(サンクリ62) [鴉座 (えとーゆきこ)] お医者さんごっこ (Free!).zip
567b8a7aa70305c2fb85dfb05df0bf947f1d0233	723878304	1	[IssouCorp] World Trigger - S2 02 VOSTFR [720p].mkv
56efc31df0cfe8a90934470c59d93408d72b4271	99014398	1	オムニバス - jaCked!.zip
5622cd5ef880cbabb4e7efe2d626392dc826e17c	7517737	34	Nakiris Oishiku Itadakimasu
56fe9fcaba9b21442467522b6a2b00556e316d7c	6368435746	118	Racquel Darrian
56dc861907c913bff9838d60a514e96d9eedc881	609488718	39	25653
5611b692758ee2f9610f91600c00a09fdf3574ac	1120644207	4	MeetSuckAndFuck.E07.Nixie.XXX.1080p.MP4-KTR[rarbg]
56b68ce0e0972feccc2a78f7d379e0041212f8bf	526425217	6	www.SceneTime.com - Great Escapes with Colin and Justin S01E07 XviD-AFG
56ddc25337a46ab9e49f7a09132dcc6a37a08bc9	73821003	1	[ DevCourseWeb.com ] RSVP - February 2021.zip
56fa39625fa6237821a33d1006a1325f7bbd2ff6	149920	1	naked and afraid s11e01 - Downloader.dmg
57a339b3852ba99b7fa56403179c4dc8a7310408	61239148	12	John Denver Windsong
576a7b83957fa361ea9ef3e5a3042bdc7dcfba16	1776901034	60	IPZ219C
57013aa36d859357c84776c428b069d6b3ee0229	409391720	23	Linkin Park - Reanimation (Dolby Headphone) [FLAC]
5700f4bc624e5b708b7257f493946b2e98ebf846	519555537	1	MofosWorldWide - Ria Rodriguez (Sneaky Quickie) NEW July 27, 2013.wmv
57c599f245eda9f7b54e2c08816a0c9b5ab2734f	4481009423	7	Freedom
57554c7f263b86921644e683c224b0c88797e861	72102245	1	[福屋 (たまつー)] 凜々蝶様は処女可愛い (妖狐×僕SS).zip
57afb4e437be79e804150feb05a5aceee7ce9274	1246452341	4	民国奇探.2020.EP15-16.HD1080P.X264.AAC.Mandarin.CHS.BDE4
5730d9c4d06ae0e4d6be057de2a0d16d9dc3da8b	405661333	3	Heavy.Rescue.401.S05E04.480p.x264-mSD[TGx]
57966569c42dbac71eea03bd75f7ccd19f3f8997	2647095210	1	Jefferson Starship - 1979 - Freedom At Point Zero.[NLV].iso.wv
571d3fc3133f8355de6e11870c91278d1c2d92a0	681801287	1	盗钥匙的方法.Kagidorobou.no.Method.Chi_Jap.BDrip.864X464-YYeTs人人影视.rmvb
57f4c1a83e04117f9ed41b122e6ad19a42aaa5e4	2491662280	2	[h0930] 899 Takako Miyai
573f4f67d983f527e047309552b1d26faa18bde5	25493257	1	Topaz Labs Plug-ins Bundle for Adobe Photoshop 25.02.2016 - Mac
574138bf091389bbee119a02a3a4f2fd42de10f9	2286747872	7	2017靓丽长腿美人东莞车展模特展示part04
58be2867eb56376552295efcf40d5d11c67f11a9	801744	1	Tenorshare iOS Data Recovery 5 1 0 - Downloader.exe
58f53be668b785941abb11f2459ec2b82bdaf2a9	507154410	7	G0203012
589acda516be614bfa94942ae55df8bbab22addc	41225665	1	Urological Disorders of the Dog and Cat...[Leah1289]...VRG...............pdf
58fa3db8843128978edc9ae17a4b3f478c63c5ef	108029547	134	AmKingdom.com_21.02.05.Babes.Series.25.Softcore.146.Sawyer.Cassidy.XXX.IMAGESET-FuGLi[rarbg]
59510dcdd9c02c80ba7778948faeae4d32edae3a	950344783	13	www.xBay.me - HornyDreamBabeZ 15 11 07 Estelle B Teen Loves To Swallow Cum XX
59b1818912d939c7d89b6cd048a8097c11269263	1554702501	102	MEYD295
59b28cc5761f95078c164b088fc53bfba47fdf9a	628377339	4	Accidents Happen 2009 720p x264 - KickASS (MicroStar RG)
5906f3ee74c50685b195336c28763a13e1cbb4b4	51975440	1	Outline-Client.exe
5907817de56a1def2f392abc55ba64df91825db5	1486356507	11	AVGP-025
5ac0676bca00c73f22c2150015aa7bf6f175d427	2422747830	4	魅力社989pa.com-星际大逃亡.Water.Planet.2020.HD1080P.X264.AAC.国语中字
5ae8bb417729c9ceb365404722f44e5817ef5f57	1122245218	1	Blago.Nama.S01E30.HD-Sekula30.mp4
5a59577f09b81c9dde288f93fce0db182be67d60	355943380	75	VA-OKEJ_-_Tiden_Vi_Aldrig_Gloemmer_(1980-1989)-3CD-SE-2010-GCP
5a730b6a9adea58a1486e94658ff767a7677d276	2424309076	8	[加勒比 111213-477] 痴女拘束輪姦 本真Yuri
5a1c97e7fb25bb5871b6cf70755a8946e79f9384	123271118	1	The.Daily.Show.2021.02.04.480p.x264-mSD[eztv.re].mkv
5ae8bb5e7cc6fe449204b122867c8359c5345295	245246428	1	Dragon Ball Super Episódio 89 [720p] - COMANDOTORRENTS.COM.mp4
5a033f8abacf2486bdfea3e7356e6bb28f460ca3	407237672	10	tlxz@www.sexinsex.net@近親相姦 2 黒木かえで 桜庭るる 加藤はる希 広崎彩
5acba6f8624b95042dc45bf700fce9d2658ea9a3	75483122	2	CLASSIC_NEWBORN
5a3a9fe5b73842f199a4cf71d9b0026a02e01aea	512229621	21	pxs13579@第一会所@淫母の記憶 ～浅井舞香(中文字幕)
5b387b50ec168d55bd48c9969617ec898c8a6104	76176752640	1	Weathering With You.Limited Collectors Edition.USA.UHD.BluRay.DV.[2019]
5bf2facdfff6a10aff2eadf3bcc2d652af3bec06	1512772294	102	FAX496
5b975d59b491709470c6b70cd2255103002f6f27	2550994	1	City-Girls-Twerk.mp3
5b052db01f22ce96a2097a4a874786b7503b9430	2712213708	44	SNIS830AVI
5b3702022aacfbd244eaa0e113960d394d51e134	2413347292	29	H0930-pla0085-HD
5be611ed8f391df5c1ca07fdb6434b70ceee7654	1491044593	1	旺达幻视.WandaVision.S01E05.1080p.DSNP.WEB-DL.中英双字.7meiju.mp4
5b6160e5cdf356ab5c4706b217e8ca4fae5ae594	3272086867	13	[2016.04.16]荒野猎人[2015年美国冒险剧情](BD)（帝国出品）
5bcd26714642f801b6cf3efa2d9cf642ad4e5edc	453066741	38	012220-001
5bfb77661211338dd8c64b2c1c74a69a6c4773ea	156401014	1	[HorribleSubs] Ace of Diamond - 31 [480p].mkv
5b139c6bb7314f613c57e9750b7838337d97faee	1182704870	1	极品洛丽塔眼睛妹兔牙喵喵全套VIP套图视频流出
5ca8db6774c3322060223f93464161e95059b415	32954677	172	[Ikoma Ippei] SM Shoujo no Yakata - SM: The House of Teenage Girls -
5cb54567c441e246c56f7434c8184af0caad1815	319489411	11	Richard Elliot - 2021 - Authentic Life (FLAC)
5c14b04f16feb45fb963a79a7ac5a206d7f0f73a	2335695218	2	The.Terry.Fox.Story.1983.MULTI.720p.WEBDL.AVC.AAC
5c637799ac0a60045d49af2ebfcc20ac329f4a61	20774511629	1	Titanic(3D)2012.halfSBS(RipZ-man)(RmxAsh61).mkv
5c44ffae14a933fd2b39f19314b7fe79035f69ce	1093347699	87	【0828-1】最新爆出超美银行女职员与领导性爱高清视频+图片[1012MB]
5c848c9ea8d233f980f823e5c26498d6f70a7bd7	11251272	1	Aegis 1.80 MAS [HCiSO] mac-torrent-download.net.zip
5c1d1659506fa1dbdf1ac5b3d84d9cc43aac11f4	1555293523	9	olo@SIS001@DV-1524
5dd10382520a3d09ebb8366dc1948281fccf1624	529206972	5	【ses23.com】nyoshin_n977
5d3ed395ac3659943220ff3d65512860c1129136	1778072502	3	Black.Narcissus.WEBRip.x264.Rus.BaibaKo.tv
5d010dc2d1a470e11605059844f0c3b49238f6c7	731617954	1	[GkTorrent.com] The.After.Party.2018.FRENCH.WEBRip.XviD-PREUMS.avi
5ded42b3180c123bd2b4fbcf8c539d03d37432ed	1421406768	3	Yes.God.Yes.2020.BRRip.XviD.AC3-EVO
5d66acaf226b055d98982a970b4d44907ab9dafc	582861950	2	SexMex.21.01.23.Martha.Slutty.Neighbor.XXX.1080p.HEVC.x265.PRT
5e79fdf97faf66676635e3d2bcde597e62f9402a	2296660067	12	【AW】X264 热血高校 I
5e2a6a9919bd23056c5bc783edfd2a5ff3516b31	492252753	3	Babes.14.12.22.Jade.Nile.Listen.To.My.Heart.XXX.1080p.MP4.KTR
5e7f27664e867f83b00ca92d5341daa1ea411934	308414530	1	极上名贵妇人那些寂寞难耐的日子.rmvb
5ec21a3451485ae1f83bddf98df6c7fba5f23c49	1197998097	19	性狂欢@第一会所@(S1)(SNIS-360)生保レディの枕営業 明日花キララ
5e04df458a782de820e70c9bf75cb3ecdd8b7782	863316969	1	jj_anal_tattooed_squirting_machine-720.mp4
5e956180cdb74f0f554fa9c3cb73b54665cdd297	230437879	1	Keira Croft - Keiras Oily Pantyhose Anal 020521.mp4
5ea24009e0cd4b545cc94f6f9d60371edad356a6	1463392256	2	El secreto de sus ojos (DVDRip) (EliteTorrent.net)
5e03f602281eb275b409931464668975ca336ae3	854875942	1	Ｂ０６０４.zip
5e7774437093e9a6270ec7f9e885f7623b61c8ee	695468203	19	20120921-10musume-061606_01
5feff2a056b1f21993f1cb70b992ebd744e1105c	10219778658	2929	Books
5f13d178143eec14f628a4e3afaa8fc778361594	668483272	163	JAVXXX-011
5f9636be92098306e750bd7419793c3b5c83bb9b	118801630	17	Zoom Pop Chart Picks ZPCP2019 Pt.9 (320)
5f3e7f58f3174480008a4e8c9344338fead744ad	1112400785	57	200GANA-1761
5f72504a59fb053dccca9d796aa51d3e8ab836ec	2007081742	7	FSET-517 [中文字幕]
5f83ea9bdb9e20c728c9421ac25e4ac97e2938f3	1472735248	5	chikan@T66Y@DV-1316
5f41503d22c301bee4b9ebf5285622f88d36ccf9	1258981591	56	67.hbad394
60dacadd18b4cf4660236d39d2f81b2500a64806	297133631	1	FuguIta-6.8-i386-202102041.img.gz
60fd99ca885b36ef7a5f8547cf5e12ac5c4c4423	157029739	1	[HorribleSubs] Folktales from Japan - 210 [480p].mkv
60642148abf7e3a398bfe30e39b35b68126c065a	653544165	30	11.010116_001-paco
6079b2805d70fc4b3542f43cb01fc5617adc1b74	266204232	1	eroticax.17.06.30.cassidy.klein.stage.heat[tk][480p].mp4
6052d6dd718fac44f810615c48f947325eb2e9dc	1049703657	9	ZUKO050 制服女子校生と中出し乱交～春～
616f15334aec09ab9fa7a687df018c97f4df4233	1058585874	15	23.国内夫妻打炮嚷嚷著快老公我要来高潮了 可愛妹妹曲奇宾馆里拍摄那B穴真漂亮 吉林一骚女的几段和諧生活記錄 中国妹妹YoYo養眼提神雞動
6173ea3372349c28a4cfabb3588d7db37b1fb656	22538663	2	Wondershare Dr.Fone Toolkit for iOS and Android 10.0.x{B4tman}
610e861995b41cdde8c7ed9180f2d56d6e3d835c	1084326818	1	MTP Daily 2021 02 04 720p WEBRip x264-PC.mp4
61d1203a040871db8244a63b222849b00ca3c969	9042360	4	MP3-daily-2021-February-04-Unknown
61abf29f1d1e334afcfafb746386e9835c17f68d	149920	1	Your Honor season - Downloader.dmg
61ab107293737346ff0bbb0a2eb16fd2ec8134a0	56608196	1	(C90) [Ichinose (Ichinose Land)] Ooyodo Choukyou -Shinjitsu no Ai o Motomete- (Kantai Collection -KanColle-) [Korean].zip
61a1a4d00d8e6952cbec0fa805860229692a70fd	277577952	1	Re：从零开始的异世界生活 第2季 第18集.mp4
62da03cf3b0fb946914f6dbe594eeb77ff6f1f19	2854458090	1	最新百度云泄密交流分享《女大学生与有摄影爱好的同学男友3年经历，视图完整档案纪实》揭露大学淫乱撩骚开放性生活
62abfcce1b50e01250741854f232011986dfc222	4253778704	80	jrzd922c
6266a0cb8f23c82448dc2977c13fcca22dfa5f3a	6363862	1	(COMIC1☆9) [うにに組 (うにに☆せぶん, くりあ)] SIBURIN IN WONDERLAND (アイドルマスター シンデレラガールズ).zip
628545b6b8ff58fc44878a4ab677bc1f7f43773b	1302856932	31	04.LegalPorno - Sindy Rose, Rebecca Sharon - Back For Kinky Sex IV262
6252cfeaa02b5aa95772f6936bc33a161cf67b60	384994045	7	olo@SIS001@Daughter Swap - Spencer Bradley ,Nikole Nash（深喉.美鮑.群交）
625fa29bfc2d6edd11f94148c8bc0dca0041126a	376724598	1	The.Masked.Dancer.S01E06.PROPER.480p.x264-mSD[eztv.re].mkv
629e9b7e0ac6830e04553db96dedac9d0b265b8c	333468490	39	David Hicken - 3 albums
62265be6fc4d7fb9088f40599376618b52ba5d95	10956494492	35	[LowPower-Raws] Aho Girl (BD 1080P x264 FLAC)
6274734c927af642e348dc04322283208bc895ad	220931776	3	Your.Pretty.Face.Is.Going.To.Hell.S04E10.720p.WEBRip.x264-eSc[TGx]
62acad5b7ebbf9e4e7275de84024dd5ba87b03b1	111895976	14	Anna Lesko - Singles
634b3c979b4ad9034cc3d4ff23239c36ce53d808	342059213	114	kin8-0552-uum96-mp4
630c3d9cefb4744d3a2d13555520c262f6e9732e	1787296246	21	ELO - Greatest Hits (24-192)
63e71cc8a3b4a6ce63d1d678f3fb15f874f86b3b	8312109725	74	超时空要塞TV+OVA
63e6114818c0ee2ab4e5084ca2c7711aa824cd58	1393912887	3	Charlotte NCOP-ED BDremux
63d09633d013d29390aee4cc131fa494691fef74	3050200614	3	AutoCAD 2013 (32-64 Bit)
63cbd47d496ff549c9fb8edb676608ca1d180d75	1464037954	1	[S級素人] SABA-068 花盛りのオンナ Venus＃12 アンジュ 23歲.mp4
63bb043ca15ddbf6fcae257b2bc5c14a276c1f85	354338817	9	Prong - Scorpio Rising (2003) [EAC-APE]
63593a0fe2a3ec17092bc4ad50d13d8658505bde	1108423943	2	Flower Boy Ramyun ShopE5
638b60822d7942e6ab7acfaca1526ac541f415fa	2687555217	1	Прорва.1986.mkv
64d108b39237d4c6bef19d6c595a1801702cc20d	1402840194	4	mimip2p+nike(SDMS021)
64cc9daeb620c1cf56438f9a1079197169a35f28	761313232	2	Your.Garden.Made.Perfect.S01E01.WEB.h264-WEBTUBE[TGx]
64859b66c9307e1770ce4151da726509f484734c	671349587	1	1852MiaCasting
64355463da63c9975de9b1103624fd3fca387b65	1467454334	56	49.sw525
640bb492b7fae697c0348a75dc99abffa7988269	1240492603	1	Jane Wilde - Professional Anal Whore (04.09.19).mp4
647d0ae212374ce534d8c6e11c522724955bb079	801744	1	riohamasakimegapack - Downloader.exe
64aad0b008c36748cfe129396be0be4540f36584	1182884340	1	[SVDVD-304]-Real-Beautiful.Girl.Lossing.Virginity.Experience.(JAV).avi
64ca9e47f4624daa09f23e3327d1c53e755f358f	1241513984	9	[2014][法国][喜剧片][临时保姆Babysitting][MKV-1.2G][BD-720P][39电影www.39dy.cn]
64e031a70f4e08cd572cdf4bac5ae191ef5efa90	5689573983	39	bigwai@18p2p_Hot Legs and Feet_2008
64e61c8c7fd01c6377eaee78224f11a6fcc5709b	159797218	1	Petite teen has a sweet shag with the neighbor.mp4
64c54e798a9e3aa92ba9a01c699247ebdf3b89a0	2327756742	61	ZUKO067AVI
64ab46103279a7712a31613ba02aeb8951cb3ac8	1461248715	34	MXGS-916R
64072cd9751fbb4dcf8f934e31bb4ddf37b373d8	1766545379	4	Nanatsu no Taizai Fundo no Shinpan - AniLibria.TV [WEBRip 1080p]
6587ad30a7bbec0475a4bfbda06df86f07793808	992863035	2	จีนXเก่า
6510ceb7214c36e77c38dc97334fa3b2044f0e0a	1204035806	3	MeetSuckAndFuck.15.02.11.Sabrina.XXX.1080p.MP4.KTR
6549c2a583bf18889fb58683634d55f04f9be814	1901989975	11	1pondo-061416_316-FHD
6583607e9813e8849dbd4b51cbd4b07cad67d529	2576321841	5	tokyo hot k0466 k0467
654181ba9594381c0737a4362cc3d7e8bee4bf62	500963613	5	[ www.Torrenting.com ] - Talking.Bad.S01E03.720p.HDTV.x264-2HD
658ebe329e617fd7a64db8647475686a0c3c44a6	74734580	1	[SSA] Ore dake Haireru Kakushi Dungeon - 05 [480p].mkv
65ca2b6b7e142777b4ee7d529dfed67c6db299a6	2065547934	27	Little.Big.Women.2020.CHINESE.1080p.WEBRip.x265-VXT
65c5824f74fd1cc0bbdeed51b1bb424cada9e9b9	1298338457	13	RCT-167(by Rory)
66a7ee021d763287ba18fc84e2251e32ab585163	530301798	29	月光下吼@QMSW@中西里菜2敏感なカラダ
66d2bb265a5563094121d9dfa39a388cf63e747b	1185044666	42	pppd298
6608acf125a9e3216b9c480e23d2305b585d369d	436592006	5	Walker.S01E03.WEBRip.x264-ION10
664923d4e5e4e36b0a1120d2b12a1cd5c261dca1	1887040525	12	Nurse Jackie Season 7
663fbf73ac841248c6a2d1d3cdbea33eec5356e8	362692447	1	Caught.Red.Handed.UK.S09E09.WEB.h264-WEBTUBE[eztv.re].mkv
673998adc2898fb738110d07e3e3630f0773890a	1084584972	1	www.TamilBlasters.nl - Vellam (2021)[Malayalam - 720p HDRip - x264 -1GB - ESubs].mkv
677105f116a86c3d46489b1d87ba9da293e2ad0f	22538645	2	VueScan Pro 9.7.35 (x86x64)Portable + Pre-Activated
673469a7e4db3d1d38de517ece6c598e1b15ab13	149936	1	The Good Lord Bird S01 COMPLETE 720p AMZN WEBRip x264-GalaxyTV - Downloader.dmg
670e47f8493affb81ba1cd67d5eb010865dc9953	419	1	家庭女教师96部.torrent
67274d858f824aa09b5c26f782d4e283ec17847e	487429526	7	G0205027
670d7789675fde895fc300dac3113b180275d27f	253978187	1	FakeDrivingSchool 19 12 09 Lenina Crowne.mp4
67c165622d3d0cbf58179ae0f9cc80f7188b938b	2216608917	2	A.Fine.Pavement.2021.720p.AMZN.WEBRip.DDP2.0.x264-DREAMCATCHER
67c48427bb3690f1944d1888b9a14597cb9fd694	57002370	47	Pictures
677814ead08aa38f6dbf6cd79895347a857d03b5	732837815	6	Monitor - Elgar (TV) [1962] Ken Russell
67f4c16b858f999de1ea299fbb2c9704fcf0f9be	1169619498	6	ebod498
6736a3251322c9e1dabff3df44747b1a1fabc1c7	17746935	1	DroidJack3.3.rar
67e0242501cfa18a36f8a31b0bf0d29d31bf00d6	2683934892	53	HUNTA081
6760625ba8659306b83543a6e969e39d4b04d8e1	1097971411	6	olo@SIS001@pt-137
685cf19b5e5c70a924197bff2a312b6588862450	240025085	15	【JPTG】成都骚女学校楼梯做爱+后入刺青女
680adc9df4b19372f8c41f46ceeb3d6cbb2a7d6f	316397568	1	Meiking OVA 3-sub.esp. [Hentai][www.limitevcd.com].avi
68abb158ffae366ecdd495c3cd4a3e3ecbac4d76	4451162	1	Михалев И.А. - Системы автоматического управления самолетом. Методы анализа и расчета - 1971.djvu
68ec902bf6a1be10949792fb1129b2ae0f1f9c7d	2083519779	4	LAPUMiA.Org - Sonic - O Filme 2020 5.1 (1080p)
68552b506b290ae9e1d3f65a3b76b241f344fb82	594529886	3	The Joy Of Letting Go
68e00573ac52c591ba942a27b927fcabd2ca8ab2	1303828942	15	xuhang864@abp-220
6803d6ead6490f130a949927bae5bf6aa855c2b7	473983710	1	Madi Collins Tight Little Pussy Redhead Can Fuck 020421.mp4
687caa83f4f79b26e096cb683db776d324e287c4	421398687	6	www.lyrics.lol - Top Gear S16E04 INTERNAL 480p x264-mSD
68f0a46aa6a59ce840cfff34bce7f7b45cded1cd	371345498	15	黑丝袜美眉自曝私密处张开大腿任你插
686afd672683fa9cbcff7f16d999d8335480a0fb	237507116	4	Klaws of the Panther (001-004) (2010-2011) (digital) (Nahga-Empire)
6969dc7d290e62598f5aa97bfcbd8a20338d1c06	105596700	104	Wallpapers mix
69880e203b5578bf198cc93f6da11f6c2e470e6a	232803862	1	Taylor Krystal, Gina Ferocious - Sexy Prank720.mp4
69cec460def8f3a3d70321825bc7469521b87a72	1714199723	1	Ass Parade Kendra Lust Gets Fucked At the Farm.mp4
699f9423f349910a0db19e2a4bf4942acb8b408f	2841512146	1	Legado En Los Huesos (2020).mkv
698698541f27eba49c642b5225f7f8ba8a295395	1169881283	1	Megapack for iWork 2015 .2.2 .Mac Os X .coque599 
699a9ef9476242c8b3f4b9a039d79c4569f045b6	1688307149	17	mc733@CT-22-AVI
69920aefb1126a0242b37009e3d259fe83036abc	1456373306	3	JUFD-744
6902852de8f2a921b8e7d3c2bfb6feb437f243c5	561543293	2	Wanted.A.Simple.Life.S01E03.WEB.h264-WEBTUBE[TGx]
69790da8fbd2a474f16aa0ce138f96bf5f4b53ca	315826345	8	babyrainraid@www.sexinsex.net@極上美女マゾ・ADUSA パーフェクトボディM調教
69eeb980865b354fd83932774f56472144cb6bd8	1081205109	1	BUR-121
699305bc1c1d699220f0d9d2db1e384da5bf4ffb	186496410	6	碉堡了 车的档位杆还能这样搞 白虎肥逼坐插挂挡杆干出白浆 套上狼牙套蹭逼
6a802cc90dc2375feb17deb769fca51b9b51fe01	23035634	75	Jessie Evans - Collection (15 Titles) [AZW3, EPUB, MOBI] {01001001}
6a915990d7999dce0d9e55ad7cbf9bd11261771b	237179389	1	[破烂熊][全美超模大赛.Americas.Next.Top.Model.S19E12].rmvb
6af6d3ca0b2ccb3a5680c1addd4f156678e68a1e	5517101896	42	Horimiya
6a7a2379bd81adbbbc211c399cfff4388de8a823	576175408	5	E_caribbeancom-012916_085
6ab2a48786bfc163d69516b7c7d0e6bae145ecc5	6567830529	3	The.Good.the.Bad.and.the.Ugly.1966.EXT.1080p.BluRay.x265-DiN
6a15b9195a37dfe2843c62613b629b399dee22f8	4383807336	52	g-area_pgm_614yuna_1080p
6bc7c3a085e0847a24cdad0cac70853fada7101a	1074040893	17	Czech Escort Girls - Klaudia Diamond
6baf2f924f674e5dd0986252167d24685514e04c	23140463820	1	The seX Files A Dark XXX Parody-2009-BD Remux .mkv
6b5125b94dec62964ae4ef37dd219b12de4365b7	363714325	1	btaw_mariah_milano02-sd169.mp4
6c1eef5a59f1ff373ad3a0acd6ef841de5da1918	46522388	3	Granny 90 Years Old Fucked In The Bath
6ce98c8f836ee3cfbcc2e2acf91ed5468869eb2c	303434211	1	3DMGAME-Sparks.Episode.One.Build.6116999-Chronos
6c99b89e1e7cb3f15d7a0f8d4b245fb28ad43896	27042964	1	The Chans Great Continent-China in Western Minds.pdf
6c8d09ade2fb70219997c254897f269d8c293a97	629999487	5	[城市判官].Armageddon.1989.LDVDRip.HALFCD.2Audios.nosub-edit110
6dae0fdba9663425548efe4e7b18f5e3dd75f70e	22538645	2	Need for Speed Most Wanted-SKIDROW (2012) [RePack]
6df78bb4d9b823f95241b8000a1dffb53003d721	702137892	3	PureCFNM.16.07.01.Ava.Austen.And.Chelsey.Lanette.Office.Bullies.XXX.1080p.MP4-KTR[N1C]
6d580d26d565c3ad7efbfcaf445ce4e349954d7c	381113205	3	Lupin.The.3rd.Part.4.S01E08.DUBBED.720p.HDTV.x264-W4F[rarbg]
6ded1daa518e014192113a15ec848f527371a99a	348876255	17	和漂亮大奶情人宾馆开房淫水流不停
6e06adfbb7bbd07a8b0305a125458fb5401b5e03	231129291	121	661yw9ec
6e59de1c9c6ca885f8ddae6d8c827e3a80f3af3d	22538635	2	IDM UltraEdit 27.10.0.76 incl Patch
6e383aaf6a553940cc9d9f29bd38aef40deac35f	433903958	1	27814-MadOut2-BigCityOnline-v9-4-cache.zip
6e4824934462fa06386632c95ee6713cd5a1386e	1478599023	151	BBI188C
6e01432a27c5035d6a1b0395007a80f54622c4b4	19833192	41	[Betty] Renjou no Hokorobi (COMIC Anthurium 2021-02) [Chinese] [e04a8678翻譯] [Digital]
6eb830465df4a219db441b5946fd4a8dca1870b9	448144949	6	www.lyrics.lol - Killer Cases S01E08 XviD-AFG
6ef2e04c7410bc9a8e7e507df9e384c98d2150d2	138390898	1	[Kikuichi Monji] Analist.zip
6e96836613816250ea644541e8d7cf08a1ee0df4	4218960019	36	MIAA-383.HD
6e709241e5c211672fb551e4750e4987597b75fb	521418473	10	Alice Cooper - Classicks
6f80d23de0f43d4645820981bfe657ca88c2a104	19621332870	205	Deep Inside
6fca61fe75dd065e0ac3f2840620a3db0922643d	211228693	12	Topografia (2010) - Genius Loci
6f1954d34f356834177db286ccaa1321fec4d6a9	375568034	1	[Erai-raws] Wixoss Diva(A)Live - 05 [480p][Multiple Subtitle].mkv
6f32cca34871910b66547505bdbc61d17070bdbb	6341492697	10	Maniac.S01.720p.GoldTeam
6f1359e6089baea10f96f753b80fc265765e3ebd	8129139	3	Coding For Kids 3 Books In 1 Programming For Beginners
6f8f5d9d35759ba8d9f125b4541842e5767f9bbd	750972694	3	Lacie_Heart
6f6d149b794e41d745a7251c56165e8d3806feda	3236361779	140	heyzo_2177-mp4
7095cb691514410a580535d0697c9fda541e8e04	22538672	2	Microsoft Office 2016 Pro Plus VL x86 MULTi-22 SEP 2020 {Gen2}
70d9dc6e642e3084e27748bcf42bf5ef80934b21	2423977247	2	AbbieMaley.21.02.03.Owen.Owns.This.Pussy.XXX.1080p.MP4-WRB[XvX]
702599b20590fb21ad26b16bd742b0bfd2126228	730177536	1	Claustrofobia.2011.DVDRip.avi
705cf64174232344578c3b82178936623f45584c	1774481896	3	FM20080430_해외영화_아이언맨 1
70c198bce7548aa5b4ba120a1b37e9007dbae26e	340322304	1	CHP.29.01.2021.[RiperAM].avi
7023c293009df3e5c6b90f6b2b97d95ca19f9f7a	15456219656	9	Selena.plus.Chef.S02.1080p.HMAX.WEBRip.DD5.1.x264-KOGi[eztv.re]
70ac20b45ef5056e244275a6f715943af3396d97	368217306	9	肥panda@第一會所@被看AV興奮的阿姨誘惑了
7018ef341efa2ca6d6f298f16ed2921ad9bf47a3	5512107047	1	UMD-766.mp4
70697ec0be013242f0aad4d4308b96c9533199c7	8586354263	1	Monte.Walsh.2003.1080p.AMZN.WEBRip.DDP2.0.x264-NTb
716f6f5fb9e7ae4fd694f94eafa3da188bf75c0f	2486039344	6	Romi Rain Darkside
71abde37a62c9e68aca6d420781ccba920eecc24	1080794108	10	中文字幕@DJH5OEW543
716e47d9f4db2fcfef2e00abe97573d9e68e8661	1592104679	11	xvsr-039
71410c0e11b7793f90b2b54fc60d785717de4867	316096851	4	Southern.Charm.S07E12.Reunion.Pt2.HDTV.x264-CRiMSON[rarbg]
71da494a0d6727a082650d53ffc60e4130d9c7f3	14603270	24	[Fukurou no Yuubinya san (Ueto Ruri)] Senjou no Cinderella 2 (Love Live! Sunshine!!) [Digital]
71bff599d55e7babe067803ad4f5a7f874bd14f6	99700927	3	Cosmid.21.02.01.Kaitlyn.Moore.Katilyns.Bench.Video.XXX.SD.MP4-KLEENEX
72bde0762e6807fac8f804bffe7de5828b05aba6	1064469258	23	谢谢分享@草榴社區@七月12號 各式各樣 應有盡有 自拍偷拍 10部小合集♀♂
72ca0a2c5b681ca32e56277cd05a8ec0cdf728a7	33135685632	1	Shooter 2007 1080p CEE BluRay MPEG-2 DD5.1-FGT
7260e4fa357e13237ecbd76dcd678baf52c389cd	5030269	2	Andrew Roberts - Masters and Commanders (mobi)
7332679db467e22b267c1cb00d30b6597d0c403f	1660852224	1	Il Prescelto .avi
73a1262aa374ffa19d1ff9c19b4f8705c514f251	2427492275	19	【今日推荐】91大神仙药加持操翻00年白丝骚浪学妹 极品身材 多姿势连续抽插浪叫不止 完美露脸 高清720P原版无水印
73ba6727476c688e52689f59e99c97c18495737e	208839413	12	Torrenting.com - MilfsLikeItBig 21 02 04 Brooke Brand Dont Be A Dick XXX
7360be66f305a30cccfba1b0b9fdd5a3d97bef7f	1342240446	57	02.abs092
736e338141bb4c83240c2bde3b8955e16a2e4687	1363521700	1	Love×Holic.7z
73f4e0db6e69265f26e6cf385ad67fbf8356b29b	690748738	1	Growing.Up.Hip.Hop.Atlanta.S04E05.XviD-AFG[eztv.re].avi
731c5559a5af1292e07aef6f2319aa47b0eeeeac	3653242508	7	恐怖角.1962.中英字幕￡CMCT小五
0597387d0c8674467b5a88679cfeed7e4bac24d0	842352336	1	LordsOfEverQuest.mdf
74e6ba67be685af309056c1bedcd26e6ee940266	165944431	1	CzechSexCasting.E188.Anete.Jordan.CZECH.zip
74e83d28136e8446dc84217e4bf1d377aadb3f6a	186118712	1	[オスちち☆801 (カイリ)] 牧場で搾乳体験 [無修正] [ページ欠落].zip
74a0011354ef6558bb44e2484cc24f1af901de94	461635702	3	顶级素人娘@www.tcktv.com
7432cff508d51d4d901a860c005a77f93bba4f9b	2340322457	1	2021-01-27 Sportscene.mp4
746b40f97602ee28d41d48406b8c94c5927985ac	3068073	2	Antiplatelet Therapy in Cardiovascular Disease [PDF] [StormRG]
74e141250315ef26e8e5d8663043d7fee16b9fac	1467101184	2	We.Were.Soldiers.SWESUB.DvDrip.Xvid - StowL
74f2aad87efa0ebfe546818e28401ad7abc9efe9	1138718349	397	Menudo - 36 cd´s
755d20d42b71bcfd93d07ef63f467dc5b1e4ee02	1228304589	1	阳光电影www.ygdy8.com.夺魂连线.BD.1080p.中英双字幕.mkv
75d8210f6327d47d4135373dc18a8409a83bbe08	4754364261	5	Rise.Of.The.Planet.Of.The.Apes.3D.2011.BDRip.Conv.x264.1080p-MOTLEY
756b15dd5bb511a428146ae6c0b7e4e1c1da9c1f	1183842304	5	MUKD-015
759e9eb54aa2c59b9a0b4e93074f84ac259ce835	155915708	210	2021-02-06漫畫11
75ce122f6159f785787fd09cbdd85d49bfb5f336	11547293	3	Instagram Power Build Your Brand Reach More Customers Visual Influence
753a094955eee8de646ae9cddf1bfc14a1de9758	452629955	31	zeaa026
75fe481626462038687845409640c8b885ed6868	12552381	1	(ふたけっと6) [-unlimited (浅倉優)] 玉祭 -オナメイドの真実(？)- [韓国翻訳].zip
75476cb2d9de19f694b9fce2b14fb494c6b22f6d	40335694	6	Sully-Tags_and_Throw_Ups_Vol_8-(UG011)-WEB-2009-KOUALA
7534a5311325f91f246329b2b359c2cb098702ba	971868987	60	13.Superfuckers 25
75b6858dc66b5d2fc4f0fb26658e1448032990c7	1196388716	11	【sharemovie】【sex8.cc】maxi-247秋野みさき
76ddd153ef5006bed556cde2c4d3c15d979b9a04	1462957714	48	javbo.net_PINK-016-SD
76930ce71807d2800cf3aa497fc8b3ebfec66b0a	401934816	30	Katona Klári - Most (2001) [Z3K]
765d1f414806f380f303c222ac03aae2b5101817	233454266	2	KarupsHA.19.05.02.Kara.Lee.Rooftop.Rubdown.XXX.720p.WEB.x264-GalaXXXy[XvX]
76ce27cc574ec63e48a45c303e8283aacb7ae718	380334559	1	pl_17.mp4
7614c0867d65c08e0b5337bedfdbdd32798dd219	475813682	29	齐逼短裙性感外围女亲自开车去接她到酒店啪啪,操太狠第一次把套子都干她逼里了,拔出来口硬后接着干.国语!
76e545bb9ed8ea247c559c635d373471052b6842	768882167	6	Harlots.S01E06.720p.FIX字幕侠
76ed127df091d01d0ad2c7151b67d8347bde1d42	1810268280	1	116_3xplanet_SABA-107.mp4
76995c5331a7432d5a4f55105057b02e59309168	2163022593	1	校园大逃杀Run.Hide.Fight.2021.1080p.WEB-DL.AAC.H264-中文字幕.mkv
765a7360352188453e057a359e05a372a3c01c7e	1467375616	2	Ilustrate cu flori de camp
76f85be0e61b4934d4f3fad798d5058b93f73abd	801744	1	The Watch S01E07 - Downloader.exe
76de413cb2e33ccca5a002d02e7472e8e3ce76fb	1802973620	2	KE20171125_TVN_더 짠내투어_E90_방영중
77a4e264bae1c9ba5654cf731b8ba585917aa21a	112342238	4	Seven seas
77192eabb0554f8edf0153daf34ded0298a53c30	828639461	1	PerverX.17.04.03.Barbara.XXX.720p.MP4-oRo[N1C]
775b36cc10f43faad34a3d9a8cd49624cf38d230	1112430	3	Natural Attraction 2 Book 8 Most Practical Tips Attract Seduce Any Woman
77155eb32ab8291747b00fec8153e56753041c47	109968655	8	Frank Butler - Wheelin' And Dealin' (1987)MP3
779804214cda3cad8ec047fff94693b9a5049274	910128024	11	Koi...Mil Gaya[2003]DVDRip[Hindi]-SaM
772e33c9bf08d6e00b48e60b0521b2f275a17088	31022952	1	Quicken All-In-One Desk Reference For Dummies (2006).pdf
776629bbaec2526cdc3a34475472e33d89799bb5	364131017	1	Randy Blue 2097 - Andrew Stark & Ashton Dale.wmv
77b9616d315f4e92e78e14d61eaec17dc6e6a6cd	1774172551	5	491TKWA-132
772beb5e6567a52d7324efb6491578ff2c484de9	6917467	1	MALVIE Mag - NUDE and Boudoir Special Edition Vol. 05 MAY 2020
7815a7e7bcb81f3a192ef8b6f9bf407318d1b902	328442407	1	MIC_073_UrmaSD.mp4
7898a73ad609b837628fb2ecf8d8b5c293d98042	1463560192	2	House.Call.Nurses
78661c6a459e8b294c8af3965dcc8f3e7c3dba51	42185898	4	YouTube Video Downloader Pro 9.12.10.0.2 + Crack
78bc28949195b869b24244967242685c2355c289	749470890	12	Torrenting.com - 5KPorn 21 02 03 Misha Maver XXX XviD-iPT Team
7884b190a029f7dcb2c6181646bd810b19188aa4	263706989	5	[ www.torrenting.com ] - The.Ex-PM.S01E01.PDTV.x264-CBFM
7864530be90bc1e7831f30c54a8ea158d11543a9	3769275487	25	(G-Queen)
78184d86328fa59f688e71859621d0e5d35b33e2	297579648	3	Yanks.15.05.25.Yasmins.Clit.Cuddling.Vibe.XXX.1080p.MP4-OHRLY[rarbg]
79cc54cbf28a8e7c9badaad7b7e9570b240f4314	89212788	6	Potlatch - 2020 - Romantic Vacancy (Single)
793b1967019b4e7da8367f6f8dc47b81e7e28c2e	144743186923	30	LOVE_
799f66c460c57a536999640bba7d57fdc4513d41	273154161	7	TuiGirl 推女郎 宅男女神福利 大尺度 模特女郎 吐血推荐合集 第二集
79d59152ce3c27628faed45bf0e97bc20c4afe8b	242888995	4	Just.William.2010.S01E01.Webrip.XviD-TASTETV [NO-RAR] - [ www.torrentday.com ]
79cc3aa48d26d2eba3ad277b5743eb31bc2411ab	663000	5	BirdsandtheBeesPC
791558b631aaf99836c70df4c77429bcfb91a8b7	2361464621	1	F1.2017.MonteCarlo.mp4
7a0fb37035e1fe0d01a6c30ad775d917ed4f2a12	1687424808	2	LegalPorno.17.12.27.Super.Slut.Aidra.Fox.Takes.Three.Dicks.1080p.HEVC.HQ
7afffcb999b0b8810c10acc4069a2daf0afa4520	467486796	36	Ghriéving (Venezuela)
7a1ba2ec390053280947e8029daf0ee54a44bb4a	2704130657	26	27.c0930-hitozuma0704
7a4cbc61e22aeb95b38707d4b9746411c5a4834d	493743440	5	1919gogo 7117 痴漢終極調戲 Ver.94
7aa6dd1578b0726679f0f68fff667ffe286fbe50	47915376	1	[夢みもち本舗 (晩月雪加)] 状態異常!淫魔のエロトラップダンジョン [中国翻訳].7z
7a52e39728874e3970118970b5a399b3d665725a	217682433	2	FeedHerFuckHer - Diamond Knights-LKRG
7acb1015e00e59ac806848fb4de6d0aae9086961	2517218439	4	YLW-4025
7aa98de2cc7aa75e65a0f5ce61caf9d8dbb2a063	101709638	3	Instagram For Business For Dummies
7ae843c601739a2ff96ddf39510232fa4d5d7971	149920	1	Big Sky S01 - Downloader.dmg
7a13528513c2b874aea680a6f12312303bc93a7d	778497984	125	300MAAN-324
7a5f2de0a10609355a32bde199822d5a7f8fdc93	1066424448	64	21
7adb057795bdbe4fa3e929ba644fea031f7570b4	15218048656	2018	The Alan Parsons Project - Discography (1976-2014) mp3
7aeadf1b5c9e9c2d325dc1bd15386d9cf5d318b4	733074643	17	【飘嫖】【sex8.cc】Bachelorette Orgy 2 3rd未婚狂欢派对2(群交Zoe Voss出演)
7adca89fb29239d8964208788e39ea1348999fcb	823570897	7	www.Torrenting.com - Without.a.Trace.S06E09.iNTERNAL.720p.HDTV.x264-REGRET
7af430f0413bd6e8677455285d72d07de0c0f1e8	4848460065	2	Brasileirinhas - Sograo Caprichou (2009) [720p] XXX
7ba0b1d49b90798134a819bc740528767956391a	162495650	1	[HorribleSubs] Cardfight!! Vanguard Link Joker - 131 [480p].mkv
7b8f7976d70f48c83680c1e1e6e475d4279c842e	643180261	1	Impractical.Jokers.S09E01.720p.WEB.h264-BAE[eztv.re].mkv
7b188adab96407ae70b962ef06572bd4cc87f351	1194076803	1	图书馆里的秘密_20170413本文件由我爱主播网[immcu.com]整理发布.mp4
7bc8035c7f566f971003393483729b671e8eff5b	1610618047	17	Marie McCray - So Good To Meet You
7b3934c5d760b4e89cb34800526c843655690f63	908545069	7	www.SceneTime.com - Safe.Harbour.S01E01.720p.HDTV.x264-W4F
7b758f20192cbf37dda92c503c5667b67bbc4467	5971640343	3	OMYX-052【神级RPG汉化全动态】纳迪亚之宝V71021 精翻汉化版+动画存档【2月更新5G】
7b3bee92bca3401410ad959f50b4ae66c7fb7777	647223117	1	Black.Roses.The.Killing.of.Sophie.Lancaster.720p.x264.AAC.MVGroup.Forum.mkv
7b071b0a728afa575b32e17b810c3d64cbff3996	2236265588	2	Cattivissimo.Me.2.2013.iTALiAN.AC3.DUAL.1080p.BluRay.x264-TrTd_TeaM
7bedf6f8a2ec4918563ceece9b014f4718e20bed	606685068	1	This Ain't American Chopper.AVI
7b84556d0fe0c920300c61b8a50a9f08f695a0f4	315625798	1	[HorribleSubs] Folktales from Japan S2 - 08 [720p].mkv
7ca8a0b673e3431d9330fe26a1d8fa7da7c47b3e	1069711991	104	259LUXU-973
7c78a2896b2b968abc9a042c095c4f64fdb33ec8	223713014	6	www.lyrics.lol - Summer House S05E01 480p x264-mSD
7cfc4f073dd2ddfd85c600df5e352a606f1246cd	482707532	1	Bloodline.Detectives.S01E15.Walking.Nightmare.XviD-AFG[eztv.re].avi
7d989b253df43d1509fa1d5e254b6a02ba335907	190569129	6	WandaVision.S01E05.480p.x264-ZMNT
7d28aee5e349d7bdc566bacae0648b0dd8245910	36474379112	25	[奔跑吧兄弟第4季][全12期][国语中字][WEB-DL.MP4.H264][1080P][每集约3GB][转载标注出处][CYW]
7d3640a4aed4c5638709c2ad7b83014f19a50d36	2448160413	3	[鱼香肉丝]KBA-001(KBA-01)
7d9aa617c74913fadc79232419198530ebf2235f	1528966046	7	NHDTB021
7ddf1cddcaf866c89e82655ef180f6c56605f06b	1262278113	2	Van.Helsing.S03E09.Loud.Love.REPACK.720p.AMZN.WEBRip.DDP5.1.x264-AJP69[rarbg]
7d0e02d2b238293710cac905738b544b969772d5	1486116216	6	Captain.Marvel.2019.RETAiL.HUN.DVDRip.XviD-uzoli
7d4212c1a3fab4e26adb2e2911667fcfb30c0aea	116103771	24	[2005] Face To Face - 118mb @ 320kbs
7df4e50bb80271b9e58db93c00d50c6dde95eefd	2075789725	2	WWE.Royal.Rumble.2012.HDTV.x264-RUDOS
7e42e557ed70c66121b93d06b8b108bbe5020490	1401997361	23	【150658477】[美国] 美丽小蜜桃Pretty Peaches [AVI.1.29G]
7e52990965d904dac8469fccf13cdc5798213290	281730679	1	[KTXP][Ore_dake_Haireru_Kakushi_Dungeon][04][GB][1080p].mp4
7ee392f90661b0c6e2212be2e1714c9f861007f0	2829874010	4	Wolf.1994.720p.BluRay.x264-x0r
7f411425ea8c29231a44781d27409afb4574d605	1313955920	6	【sharemovie】【sex8.cc】KMON-003 - アジアフェラチオの主婦欲求不満
7f6a79b7c23c5c4b64345f7fd9add06e2e861d22	434632506	1	[Sugi G] Seikatsu Koujou Keikaku [korean].zip
7fe259873561bd75dd1da951eff163443d337481	904882251	8	runnin a train on big mama 2[silverdust]
7f14508e58c32ddbb15b9047cf045ebe56c8c1c4	522586875	2	LegalPorno.19.12.12.Emily.Willis.720p.HEVC.HQ
7fafe42b1d99eff5f7470efc42f27fc2d7220afe	412282376	1	FC2 PPV 1179990 SEX.mp4
8005e64c9d7672b1854dc8d217fefdf4a936735a	367901444	6	[060203][Black Lilith] Yami Miko
807714c0e0d1ae06b3e2aad0e288aaa9e220c4a4	218095797	2	Экзюпери_小王子_Маленький принц_2011
8021b59e2fdb4d7eaabca3c0bd5ad1b123c8a1fa	149911	1	Freaky Loops Retro Chillwave (WAV) - Downloader.dmg
81734c46849b9288faafef42af6643e919d3410d	1335581824	1	Spizoo.17.06.02.August.Taylor.POV.Magic.XXX.1080p.MP4-KTR[N1C]
81148942bfeaf30064ca73d3395b2b81ddfe1717	388522899	1	[Erai-raws] Ore dake Haireru Kakushi Dungeon - 05 [480p][Multiple Subtitle].mkv
8121fd53c73a35ad3c18959561048b62282bea4d	1789108100	1	AVOP-227.mp4
815513efbb6564937fd62795a0855c1effc6e462	1861142737	65	HODV20870
81d36d1fe7399b90c487cfac1371fb990568976c	1541407192	21	正宗國貨精液集便器 操淫妹射到飽超大陽具齊射盛宴 向我射精!!! 採精的小蝴蝶淫蕩出品
81f93850eeefe1e2595ee5b873bb39bb0dd15370	704463208	1	Mud.Mountain.Haulers.S01E01.HDTV.x264-PHOENiX[eztv.re].mkv
81a5bc1a7be8528b6b88de21cc49d69a6897b193	701709840	1	SDSI-008_hd_d8170c9c780e01327a4bd694f6226b71.mp4
81175229b71a3e76a0f761b15eb53797c774e4a7	677941516	3	Stephen.Colbert.2021.02.04.Tiffany.Haddish.WEB.h264-WEBTUBE[TGx]
81160d5957a12121f206805cd1740b90d68706c6	325752201	8	59
81ea2e501996a9927731733d01b510d32a187ee0	18053218	27	FootFetishDaily.com_15.05.09.Brooke.Wylde.XXX.IMAGESET-GAGBALL[rarbg]
819644f574913dbcad5984ceb26fd9aaf9594aec	864454878	45	QN-721-SD
82a44378fc9a3efd6557d5bc4cce4624631f3816	233708494	1	[Sakurato] BEASTARS 2nd Season [05][AVC-8bit 720p AAC][CHS&JPN].mp4
8206a4e92cfb7a89d0d1b2c3728521bab10da4b0	867485141	1	Photographers_Lies
82789b80552fac5533a9bde533472185394a9fde	6008477959	1	Alina Lopez DoggyStyle Compilation.mp4
8269ef545b52228b7abcbc045831ff1e5e16b8e2	1376991589	3	Bad.Girls.Club.S17E06.Strike.Up.A.Match.1080p.WEB.x264-WEBSTER[rarbg]
826495c7ecd63d4af1ff7b65a08069d606a8ccef	55497705	1	Icecream Screen Recorder Pro 5.0 + Patch [TIpuCrack].rar
8205aa153f032b8bf0428d4280e9dc79235714fe	1049323	19	หลุดสาวสวย
83b516e67ba66c726d8b0606d33322d1f7648904	1237977783	29	H0930-ki210206-SD
836adf11a74675cbe71ce76207766bb8fae3264b	2524022729	30	25.hunta436
83c0d4217a65ad3a1d50afdfb632c8ee80947062	505548221	6	www.lyrics.lol - The First 48 Presents Critical Minutes S01E13 XviD-AFG
831e43df5671501acd532d1bbb92b5a6c4d7dedf	733829120	1	clearos-enterprise-5.2.iso
831ed96f33ad88c0ae1b18d2adfad48fc4015fec	5360981565	43	[PSV-720P][出包王女][To Love-Ru Trouble Darkness][第三季][BDRIP][全12话+OAD2话][BIG5]
84edefc83836dc24a96e2f9dae399c2cd85f3e2b	1081026078	1	klxcnvouewyf9438ytioeur.avi
84e7bd908010606b45f1d91c468d0f3a35018739	9604346927	207	Asst Magazines PDF Jan 28-2021
84e376dcddf0d7277f0d36a894b207885f8be8a6	89336147	3	Reveal Sound - Spire v1.1.1 OS X [PiTcHsHiFTeR][dada]
84881491c5ff094d9533d223703ccd300792a3a9	1309764798	1	男孩与鹈鹕.mp4
84a86ba02c9aa53f19b7574af95748ce8dc75fd2	2324690459	17	Tokyo Hot k1374
85f1e4a6fcbb424df6f21e6d54b6a1e50b76f031	308154698	1	[IssouCorp] Boruto - Naruto Next Generations - 184 VOSTFR [720p].mkv
8599082bd6d408d0f023398eb1de22a957e81864	547297220	63	All Aboard!
859510fd90d424d2ac7f775a82f899a486c4077c	2089524287	5	Golden.Slumber.2018.1080p.FIX字幕侠
85e9275b03df918a26de986007e8123b17ac1fcb	4567885375	10	Long_Live_the_Princess
858ad81fc0a77d9cfda1256b235479c4e69a58e9	1112657109	241	私房片精选国产自拍合集[20170618]
86908b4d1c7cd3375241b7f09415b255cf3b4247	907688321	3	[여고추리반] 방과 후 특별수업 LIVE 풀버전 재밌고 귀엽고 케미 좋고 다하는 이 조합
8660b69a0e38e9ae379ca8afbc44fdb095f0c96f	12417801	3	蜗牛网 www.woniu1888.com高清国语轻吻商务模特皮裤女孩毒龙口交上位
86b18dbeaa7d500c2c2f29c85e99410f220da270	2444308837	1	Curiosa.2019.FRENCH.720p.TS.AAC.x264-KOM.mkv
86015476893372e0365951d3f82394e22827b1a6	207941910	9	aidisheng-ls@第一会所@国内大吊哥吃鸡第五部
863cc1071c89ce1b5737b0fc5f2dd800bc4f9eb5	610185089	13	2018 The DJ Producer - Future Incognito
86fb08ced9364d6d6f53ece23418886775c4acd6	1964244992	1	namib-cinnamon-1901_x86_64.iso
87c0022c30fde4a8bbacce65c0aa88f14ac06711	1241691793	123	UGUG060C
87e811c700aebca6fd5985e9e334f4d746078f33	413051640	61	Hedy West - Ballads And Songs From The Appalachians (2CD) (2011) (Fellside Recordings FECD241)
879f25f605f999af280719f018e9d4247718aa34	2177407291	1	The.Good.Doctor.S04E04.Mai.piu.come.prima.ITA.ENG.1080p.AMZN.WEB-DLMux.H.264-MeM.mkv
872d8b92edb9f898307de7e2943d8eb68453a46d	554043069	13	14 91sex哥绝美原创-面容姣好的性感黑丝车模“小熊黛林”提枪后入表情叫声销魂喜欢翘起屁股被干
87269e5de4733019815dfd93de44a723e0737080	12458582207	12	Kemono Michi Rise Up (2019) [BluRay.1080p.x265.FLAC.ITA.JPN.Sub.Ita.Eng] by stress
871a7d257a2482ee329d1b6054e09d9bb5d19f8e	1010650070	15	[99杏][261ARA-441]【激カワ中華美少女】20歳【肉棒好き人民】えちかちゃん参上！中国語の通訳をする彼女の応募理由は『ワタシは--更多视频访问[99s05.xyz]
87bf51ea608ce2d3a67c59343ceafe9408333697	26448516	61	Britney.Spears.Pussy.Shots.XXX.Images-NICEPUSSY
88fd3281c01bf2305fde17501a66879d3e3f1820	620973392	2	人妻母狗调教 胶衣捆绑 暴力扣穴高潮 无套啪啪
88840753d21621466044f7017d44c16901721c54	2431973389	2	Euro 2012 Quarterfinal Czech Republic v Portugal 720p HD
88a3ec4a1dfccc71fb628e64d92578307fb26f87	1110013832	2	JacquieEtMichelTV.20.01.19.Martine.70.Years.Old.FRENCH.XXX.1080p.HEVC.x265.PRT
883299e00a606c51f3ef65144765957a4bc01cfa	1898749211	6	10
89fac94fb547fc80b9aed00040233e8c1967231c	1382079722	58	170926土豪约操大二制服学生妹小骚货援交特会玩-9
8948c08bc153588863e258177b32c10e01a12c43	868210	3	[2022.DEV]2022CM用户3VQ9分享.mp4
893c9440d38361cd665279e637dac503ff368f48	1035166499	1	Adria_Rae.720p.mp4
896ca0a87d88e2928a6090cd6652f93dbc010272	1511845706	6	超时空同居 1080P
899fcdcb5072b35903f0ea25a0ccf3a24e2dd598	1983428674	1	AJ Applegate_Evil Angel_A POV Sphinctacular 2.24 08 2014.mp4
89e29f6ee5d719ee779dfd5bafa7b6e11bfc919c	730528602	51	Dirt.Wise.With.Shane.Watts.2006.DVDRip-UNKNOWN
89db3e48f19823581be66dcb13cd3c2671101fbe	214147825	3	Buckwild.S01E10.iNTERNAL.HDTV.x264-YesTV[rarbg]
892b40ebfd71d2421c5d934315671e213f0858c5	1056981304	2	avp2
892ec58817380206050ed2d02672ea51264387f6	1269574540	28	Nubiles.15.11.05.Roxy.James.Foxy.Roxy.XXX.1080p.MP4-KTR
8993eedc62f09f76ba26a9ce4b9a72f9e4a02af9	4261408996	1	Animator.2018.P.WEB-DL.72Op.mkv
8a6483f14d29e9e3b9f6f127638a658adf5c4517	1383948368	6	Battle Brothers
8adf1a871b14f2e7d30e10174c6df6db8700733d	1387768963	27	3:10 to Yuma (1957)
8a9ed964c49ce5cae57a5c2d9ffe579497b3ec46	145922507	1	SeX抹掉PTA问题违背道德教师~富田沙良.rmvb
8a1750f1d3beeb75d2d97ef79696c768e30a0851	1595651892	16	Servant.S02.ITA.ENG.DLMux.XviD-Pir8
8aae415e39d669ab0e564541342693f180efaa51	120396537	1	[NC-Raws] 大人的防具店 第二季 - 06 [WEB-DL][1080p][AVC AAC][CHT][MP4].mp4
8a00032a95c39a90019281616d1b1c810bbc1053	865699211	1	Inside Obama's White House - 4. The Arc of History [ZigCOM.HD].mp4
8a06afaa10f0aad6a145f5de59745a24bc7b4a8d	111662077	5	Giant Natural Boobed Girl Fucked
8a1d78ec4b049d699ae40fa5d48869a4bb0faba0	1516122483	1	Emma_Brown.1080p.mp4
8a6f94f70880e6495fb4108ca256fe9e853f06ac	326077316	105	heyzo_hd_1162
8af49a0a154b5cf1fcd7a6c8509a8ce40ec708c7	1299940445	8	jing224
8a4b5480ba1b1ee3a5a76c26e0de90d8733910d7	36215894011	167	D Twin.of.brothers..2004.GOTV-MKV W
8a2a3f155df4d4c231dfca7c3ac0a18fec539ff9	198878145	1	James.Corden.2021.02.03.Kal.Penn.480p.x264-mSD[eztv.re].mkv
8bc2187463f2b14c75ced515af487bf900824508	1594785271	11	【sharemovie】【sex8.cc】RED-094ネジレタ欲望と題
8bde0621575ab28b1f5573e212607c8c3ebd6908	125578724	1	(C96) [SUGOFIRE (Sugoi Hi)] Mahou Shoujo Kyousei Zecchou 3 (Shinrabansho) [English] [GoldenVampire].zip
8b2a340d76b0424d9e71fc5e06591da0b41a9b1f	2599474409	12	[HR] Another S01 (2012) [BluRay 1080p HEVC OPUS Dual] HR-RG
8b77c2304f03db20877e74d4e17bdbada4475b22	2425091741	3	[鱼香肉丝]RSB-001
8be0a951c9f06c632c98817b354f96878efae22a	389795762	6	DAD-078
8be9ca21bcbd31a867bc137750179c6a0458d85e	748047608	7	chikan@pacopacomama-031513_864
8b68e28f806038dfce5409cc495b230c58acf572	4401278123	1	Cris Cab-SWR3 New Pop Festival 2014.mkv
8bba9f0b3f22a96ad77594ca4de46694143b1de1	1162651369	4	Wolf.2013.FESTiVAL.DVDRip.XviD.MP3-RARBG
8c7e624b877b81f4f6d071a520f58f6210e6c032	693035848	6	Oxygen Not Included
8c338f436f8f15e1c6214569f65d6a3ce20edd6f	469500131	15	wlwl318@www.sexinsex.net@破处系列之四十Amelie Loren
8cc2f2b66fe8dd6bc2aaa7735f3b7fb6be7e2ffd	117871082	1	RTHK反斗普通話04-奶奶殺到-2013-8-15.rmvb
8d00fede134494abf6759e445fa2860b4b778c15	196028534	2	[SQsub][Pocket Monsters Best Wishes Season 2 Episode N][123][GB][X264_AAC][720P][MP4]
8d7f16df10bc3bba18b2559d9561c8ac16b20c67	109077237	3	Google Chrome v72.0.3626.81 Stable (x86 & x64) {B4tman}
8d545e37638ee8a32b4f7e20531483105217446c	279698142	15	The Notwist - Neon Golden
8d0fb9840a19a7813d7b50068ef9acc0e1c8ff85	220847155	11	Vicki Brown - Lady of Time
8d8f73c2d5a8d2000431079ebd2faa2bbb773189	2472663040	3	Sekrety_otnosheni_[tfile.ru]
8d2565d5bf4ed258d01bb903bc17e0f8aa371fbc	1032551586	2	Debbie Macomber's Ms Miracle 2009 720p HDTV X264 Solar
8dfcc3ec240e94c77ba28843d9254b9cdcf021ec	229785483	31	【火爆958】【SEX8.CC】眼镜妹子激情自慰 多部
8ee84f21ba8f52e055bf40287e01d0e91cb72a01	1607467359	13	NikeのＢ@第一会所@ZeroTolerance - Haley Reed
8e0b834e603f15e00146d2d288231ad4ad792825	1674240020	6	[44x.me]WANZ-536-C
8e6a180593c31972d1289a0fc430c5022ebae635	875229022	1	abp-165.mp4
8ec992e0a0b8fcb82d7fa625c3113ddbbbdea848	1248001613	147	HBAD161MP4
8ec6316beb34f34f90f7e0b9e6744415c1068b5f	8801291	17	Hunter Series by Shiloh Walker
8e16936bff6d80e8c9ffeab4445d4ecfea189961	4194367269	3	KellyMadison.19.07.05.Kara.Lee.XXX.1080p.MP4-KTR[XvX]
8e331f8bc0c1b382c839c1fc0a3dbc8ad592f764	732534784	1	Swallow.The.Load.5-[English].XXX.DVDRip.XviD-[WwW.TorrentesX.CoM].avi
8eb525a0efe1fe50d312dfe84734ecbe03253477	2491633300	62	JUY420cMP4
8edec84199d70f413a0bf710ca3813a0c4170898	13251715	3	Diy Exercises And Routines Complete Home Workout Plan Be Your Own Gym
8e1064f3d08bcf0137b1b7825b98583cf4f5dcc9	609742033	3	LadyVoyeurs.20.05.06.Ruby.Summers.Naturist.Shock.XXX.1080p.MP4-KTR
8e15260636271d61590de55aca03f4e0b961e7d0	617545767	10	FC2巨乳少妇主播道具视讯秀 气质非常好身材特别赞的美女蒙上眼睛3片，拍摄她都不知道 刮完逼毛的黑丝萌妹和FC2大鸡巴口罩哥宾馆开房一边啪啪一边自拍
8e6b9e3069fefe795ae2445dddf3ec057afd87d0	3877625742	758	Python学习路线图—视频篇
8e72ebb911f7648c74e180b7a9200646d07c2fd7	392029367	5	6815_by_waikeung
8ef105936b013fb16587b89419a3f36d0dce6cf3	7481563	22	HomeRun
8f32196c13157d0dcb040325a16f3747795bf611	1317372141	3	[Hegre-Art] - 2010-02-14 - Tantric Massage volume 1 [01'28'29] [M4V] [980x552]
8f666243017784fc37f3654bacfd0f80016fb323	3229750182	22	tokyo-hot n1059
8fcfa9d683491fc505139e4edc982314b67f9571	22538240	2	Townscaper v08.10.2020
8f51eebf251e65f5b07070b9c530890d0a9ac372	1224167352	28	x1x.com-112078-WMV
8fd95ed612effc334622b6207d09877c95cb3fd3	214924936	121	美臀女学生三连沙发
8f254cf4ab2505eccc8d194baafb337d2614f9dc	352287135	1	[Erai-raws] King's Raid - Ishi o Tsugu Mono-tachi - 19 [v0][540p].mkv
8f04f060d98d611fd3d4ea58af2351d326d5afe6	1395612336	9	第一會所新片@SIS001@(Tokyo-Hot)(k0911)餌食牝_月野杏樹
8f2830c51863a2f238954f46f05aef960fb297ea	257853776	1	PrettyDirty.16.05.06.Penny.Pax.And.Jaclyn.Taylor.Sugar.Babies.Part.Two.XXX.SD
901626204647f037412ffab79cdb0d6b0307e811	6239608832	17	Idealnaya.semya.S01.WEB-DLRip.25Kuzmich
909afba32e1e2c0ed119668fd12a57a6a95ab21a	803399882	10	大神用大吊各种抽征服女神，娇喘的对白淫荡720P完整版 地产销售美女明星被副总带到酒店啪啪，美女真傻，随便也能嫁给富二代干嘛让人潜规则 对白淫荡两个美女闺蜜玩SM虐奶舔鲍鱼舌吻720P高清
9017d2175fba25816ba7531380a1235257247955	322054026	1	10.zip
906e0305e56505eb4a04518f33136b8847bdb857	22538645	2	WinRAR 5.40 [EN] 32bit + 64bit + Patch - Crackingpatching
90a40f15cf95c46ea6c14826d63104fc744ab490	1810873162	60	IENE322C
908cc8e0be4fd546c321180d7206cdf2c2143fb0	152192466	2	RodneyMoore.18.08.16.Sky.Jones.Faithful.Slut.XXX.SD.MP4-KLEENEX
907d9f10c3effe9104092bf3b4c6d9232d3a9fc0	1716944583	1	泰国风骚凤凰姐妹，三女激情情趣装镜头前的诱惑，身材不错道具抽插激情艳舞，呻吟不断精彩不要错过
90765bc5de4ce43532d1d565e6e951a9b04d6be7	2685599363	16	VIDEO-SOURCE 1
91b8c5ce4dc7d628cf5d156204cfc50bd8041808	1302356733	3984	Chataro
9113b5ad52521c9373cc6c2c8a973d1ca2cced63	1462944289	1	Manuel.Ferrara.Marica.Raw.11.Scene.1.EvilAngel.2012_iyutero.com.mp4
91417be0d6084326ceff1c336fb00f1cdd5eeb6e	1536447754	1	MEYD-218 今日は孕むまでナカに出して… 中山香苗.mp4
91224f68f53ce8a35ab9e38820d05d7749768e96	296798094	23	Grieg - Cello Sonata & String Quartet (Truls Mork, et al)
91e26a75be7908a33cbb8aacedaff1ca1c4a41bd	290914226	1	Heather Pink is an experience MILF who squirts, gets anal drill, pussy fucked and sucks dick.mp4
924c727becb925b62e8046b4147d5cbdc52b410a	64964380	12	Goran Bregovic - Alkohol - 2009 - JUST
929f0fcd32ef99b0f1d57bc2af0ff299d608fc4f	1422357373	52	13.Coming Of Age 3
9231da44fedc803aa360d443505852ac3d78705c	431368170	15	手 機 直 播 精 品 福 利 之 尤 物 情 人 激 情 3P， 露 臉 熟 女 姐 姐 跟 兩 個 猛 男 玩 直 播 ， 激 情 爆 草 多 姿 勢 嗨 皮 ， 浪 叫 呻 吟 不 斷 2
922713b61b2b78fa3815421a05e8bb4ab75fda9f	850394336	148	VAHE02MP4
928c3f50b1ccb4035a7d43a31a60a5ff1607b7db	2104888761	1	Баскетбол.НБА.ЛАЛ-Денвер.04.02.2021.720р.25fps.Мегого.Флудилка.mkv
925a396499aaec57464579f1c5dbf53361abe8e5	445516366	4	TeensLikeItBig.Cassidy.Klein.Horny.Tiny.Teen.Needs.Hard.Fuck
9201b817a04f177c0e434c9b43250bc9f20dbefe	563763723	87	淫荡诱惑呻吟珍藏福利允汐戴予桐私播高清完整版 趁家里没人姑姑为我舔鸡巴口爆 山上扶树打野炮女友说好舒服 美女一边唆了鸡吧一边给男友打电话
93edc6e271d8046c73e065dcefd912772d09aa32	3903696762	27	DVDMS-195.HD
93336a1e4153af7c41f400b00526aafeb538be3c	3543400739	1	(18禁ゲーム)[100226][Parasol] まじからっと☆れいでぃあんと (iso+cdi+jpg).rar
93eb0afddfc1d662202ea1a6b2e622e55fd2af55	65391248	1	0262013193Probabilistic.rar
9326d1a0fa2f048932eb5f78a16cd8faa4b904dd	8277792872	4	Man.on.a.Ledge.2012.1080p.BluRay.x264-REFiNED
94c95405331d175ce6c4e99b61d598fd40de834e	177269200	3	Grown-ish.S03E11.WEB.h264-BAE[TGx]
940ceb5fe3a73a9d48c1502f97cb8f5747a5df58	84356367	9	Art of Infinity - Endless Future (2008)
94ff0eb75127e1779fb100f65c10aa45430b825b	6143911017	1	Sky Angel Blue Vol 2 Serina Hayakawa.mkv
94fc053914f84a67557eb1548ec326bb4799ee77	1412110803	11	海边别墅玩弄好几个情人，一晚换一个，好爽，这感觉真是太爽了 杭州某一富豪搞到喷血推荐新春福利极品车模聂子雨大尺度私拍，拍完开始草视频流出，很久没见面的气质情人制服诱惑我，没得说干爽她，吃精
941fb1b59bced33614729c86e62a6419dc366086	110493910	113	一只大海龟@两女同CHILLOUT_medium
94d6f938ab997d0c19c20dd467961b1d03960790	1277312119	4	0901@zilang7540@homa-020
94e48b3fb3b93e40843936710caa956607bb8db4	26301477	1	[HorribleSubs] Ani Tore! EX - 07 [480p].mkv
947aea41a00a4d155985bd818cae601e55b056fb	1186849848	5	Snowpiercer 2X1X2 HDTV XviD Castellano www.yadixv.com
94231db335fe0cfcb3c7e6a09a259d93551110fd	1717310754	9	第一會所新片@SIS001@(Caribbean)(060613-354)ギャンブルに強い女は性欲も強かった_とこな由羽
9542f0c18a0171e16d6ff733143a989811f0a213	401598458	2	[ManyVids] Merry Christmas Baby - ohaiNaomi [Christmas]
9525ecf032de6c96f87bfcf1eef1e82612dc281b	731359942	2	Nate.And.Margaret.2012.DVDRip.XviD-IGUANA
9539ee66e56bb4598ffa58d6733e7b58162e2a2c	4439867529	13	Crossroads Inn
953b4850a539d8358a7a0898f6a3a40e6901fb84	3507503881	2	Wilcom Embroidery
95c017cf57056f367479db2d863a90d54e0ce2b2	1083338515	31	hjd2048.com_181207大神约炮90后极品镂空网袜小美女抹油爆操-5
95d968369cb8bdef6fbce79ae7f2a226987697d4	573926684	1	DLraw.net-Ojosama no Shimobe vol 01-08.rar
969301f7674ff09584073ca5e7c7e79929eef742	1908010235	3	Aviones De Papel [BluRay Rip][AC3 5.1 Español Castellano][2016]
96da8782840eae36700a99a1e5136069a6e5585c	3909091328	2252	mame202artworkall
966e053b6423f2531f17d476f95cb647747a0eb2	485108550	1	Casey.Calvert.anal.POV.mp4
963d839fdf2248dea58761d0c4665111340743b3	385508343	4	The Molecular Life of Plants
96c939a27c721d7916410855a6e90b516eda62c9	2178430844	3	#_AVOP256
964e249d965e22010663e919c548702d85ffe6d6	649260841	1	Tommys Inferno (2005) DVDrip [Togachu].m4v
96941f52c1f7a5b9ea07fc55ad35d641ab1d3af3	37439238252	254	aylla gatina
9763456ba50146c296f02c9b8300b90c571bfd13	36574330880	10	archiveteam-twitter-stream-2012-08
9749a3e78ecf0486836820e8c39e32e12ef52753	1029392977	7	Rola Takizawa ABS-130
976930a19989f1e44e9e43977f627e66e27d2fa1	1159302324	42	ZAY20011016
977bce23b278fefbe1fda698bb3b54a8231928ca	134740491	12	Torrenting.com - UpskirtJerk 21 02 04 Miah S Sucking You Off XXX XviD-iPT
97e9756019656764d061396f7534e0ebc091aacd	670397251	30	Fantasy.2Kimmy.Kim.And.Mina.MooxztnAXX
9799ccfcddbdb6a5bfe92e14170e207297b825ec	4317950002	5	WF110
9868872f85e06bce16ecb9fe430598e443fca777	3471921957	5	【ses23.com】mgb_akira_lane_bb081914_1080p
98ba17631fc87a5445a2a8d3302c8cb701ff527b	2211363017	4	ATKGirlfriends.21.02.05.Paris.White.Virtual.Vacation.XXX.1080p.MP4-WRB[rarbg]
98dcbde5c6c3955b34357a71497184f0bb96b5ae	4463815	13	[Kenoru] Kemono Contest (Monster Incidents) [Digital]
98a90bd3fb600742a03bdb0e5fc6d7c7bf9459cb	7061125913	6	The.Flintstones.1994.1080p.BluRay.x264-PHOBOS[rarbg]
9842df41e32c365d3db551e3773497ab793d72ec	111627931	13	国产-酒店狂日性感白嫩的黑丝少妇露脸国语对白
98ba286edd74663e22e024262f93363be3e2fefe	2453105751	1	ARLE-002.avi
99a4a18be0687c38dafcb1df7e9b742d39eac326	345520919	30	29.fc2ppv-968495
999217000b4c9eb05866859561749e9846525a88	556696456	3	Wtfpass.17.03.13.Sheri.Vi.girls.got.dirty.XXX.1080p.MP4-Zsex3i
992456aa0e119d5d96c4424e46949311ee1c2ea8	472265621	1	[ www.UsaBit.com ] - Nickys Family (2011) DVDRip 450MB Ganool.mkv
99ba4a9dc2eb0571200150080576a563b0d15aca	1231485432	4	[Inka-Subs] SD Gundam Gaiden
994ae0d7170e2ac66d6d51f050941bf17fabe0d2	239547259	6	www.lyrics.lol - Fast Foodies S01E01 720p HEVC x265-MeGusta
99b707acffbb48e8c12b54ee41baa5d680b95cd8	435188911	1	[BFFS] Dorm Party (28.09.2016) rq.mp4
9937965304098a33dde234d0c74f7aa2ea102af8	1728707821	15	fc2-387357
9a35b620ed380b894ff438aca76d2e3965f91244	37649595	4	Homemade - Very ! hot blonde
9a6c2a238454e4d0fb44a0c15a28565a6f3f1464	1191223566	7	DVDES-707
9a10303e2d93e084f460d5ea50d1ba7b5a9d2184	8531233706	3	Thats.My.Boy.2012.1080p.BluRay.x264-SPARKS
9aa17f0bcd8cfd6d76eb63fac07201e9f843adc7	1821609682	6	olo@第一会所@mvsd-306
9a0745b8e3df5ed2f7aff827e19bd2fc437f03ee	2647882301	4	#675 Anikka Albrite
9b007941b615499f0e7e4cc1ecd037dd8bdef31f	525860926	10	TVBOXNOW 六點半新聞報導
9bd926b7ad1ea110bdae6010d4427705f97c0e1f	1276955697	4	Iron.Bodyguard.1973.CHINESE.WEBRip.XviD.MP3-XVID
9bdb483bb3d73ec10ae211d7b5bf528b36dcb65a	605012090	687	Mini-Reviews in Organic Chemistry
9b14219d8453f61e0101ac76a4b5e86b09c703a0	1484853600	69	TheDiaryofRiverSong
9bf896eb70cfa89638ddf2059787ddd4205158a3	1809657386	3	BEB-025
9b14b89d5c2584c40c3408904a94df5b8e6f71b1	656780016	2	MIAE-327 Houshou Riri Super Luxury Creampie Soap
9be11ce94131eb5ba62a1db5d106c137838726cc	467106622	3	[RealityKings] Kenzie Taylor , Sofi Ryan - House Slutting - {Moms Bang Teens} [KTR].ss
9b733d5970ff3b69283d7bee3ef15980e768a0dd	677306905	59	heyzo_1500-SD
9b41cc081f62f589277b007111034a5306c56ee2	166056695	3	约炮重庆丰满少妇
9b0092e25b56e1a34e3943da146f717b6adbe8ff	1200533060	45	Carib-PPV-010116_465.02
9c0a0072a7e09e783ab643e7c5259b665e423808	140459536	16	Sick Puppies - Connect (Deluxe Version)
9c5d3b50f3179995f05524313a4cd38d93ff5123	3035192772	62	10.NewSensations - Lucie Cline - Lucie Has Enough Time To Smile With An Orgasm
9cb1e76fe5ca2524a915a6096b6448e2c40b835d	849378284	1	Tight teen slut Paris Devine rammed in every fuckhole by 3 cocks & DP'ed SZ1382 (480).mp4
9c74f70b96ee94ce4acfa0110f2aaaf23f052a85	203176015	1	[USP RAWS] Saikyo Kamizmode - 16 (Part 1) [8C9C384C] [WEBRIP].mp4
9cd78321c01524723fe5d2e7b303dcc6971d36d1	157169865	11	harleydavidsonwheelsoffreedom_cdrom
9c681b7bbf00e6161ba228236f0a697ac5bcf1df	1257467571	7	TERA-007
9ce0f694b39554aced2796c4233e09f2f8a2e4e1	221261019	1	CherryPimps.Cucked.21.02.05.Sidra.Sage.XXX.480p.MP4-XXX
9d83f91df1bb57856ec7c2bd14ccb0870f2f111c	365402422	1	Redfern.Now.S02E01.PDTV.x264-W4F.mp4
9d2ee1e610c426e7094c846b1122c6fe17c36c23	4468498987	16	New Folder
9d36c94e5fa16134134b5ddf9bd930d973f9ff55	1502128269	7	[CESD-341]
9da026aca5e715f928fb0e50aff3df3ec61ceb68	1002824299	1	www.TamilBlasters.net - Chhapaak (2020)[Hindi - 1080p UNTOUCHED HD AVC 950MB - ESub].mkv
9dc1e59a3d5fae50db7d5b44ad9a9161c5b4f988	5734927932	2	Monsoon Wedding 2001 Criterion BDRip 720p DTS-HighCode
9db31f77eb82a23e0eed695f943932a200eca6ce	3319789487	1	Magic.In.the.Water.1995.WEB-DL.720p_by_vedigo.mkv
9d375ac273e7b2e7009d2c8845e4a2b6d03bd4f5	586366689	1	3DMGAME_mgzm2_szmg.CHS.Green.rar
9d0cb601c6ea669d2c8c58b855156fe9333a5bf8	40210307	1	[Kowareta Radio (Herokey)] Inyokujou no Kabaneri (Koutetsujou no Kabaneri).rar
9e78f6e967e2fbfe1ea611c46fd56712b6405e1a	22538645	2	Avira Phantom VPN Pro 2.34.3.23032 + Silent Installer
9ef173b2a610314fd52301dc4ab02f2faa6d1f57	9468994	21	[Shinobe] Keep on praying! (Comic PLUM DX 14) [English] {maipantsu}
9eb1019e30827a154ea490a2204c5f1b51a1778c	1056180944	7	olo@SIS001@FC2-PPV-1148701
9ecf45421d94c2527c15bf36c558adf9a41e438c	149920	1	The Expanse S03 - Downloader.dmg
9e00749973f05ffb9fe1af5be1ea8791d7380ccc	9319539569	13	Seikimatsu Occult Gakuin
9eb881dfb1f3cefcdecf1c71a598cbb8e6a2d6cd	168690380	12	逼逼没长几根毛的可爱型小女友宿舍和男友啪啪
9fc68af06f8143147bd3a41f2399a3a4af99c506	190979567	1	Gauge Shows Her Wild Side.mp4
9f2c55624b40c5c48e9f608eccc3f5beddba8007	11968994973	16	Da.Vincis.Demons.720p.HDTV.x264-EVOLVE
9f4dcdfe97eae4254fc2ea3c6b0b43592013810f	166755050	1	极品网红萝莉少女【呆萌橘子酱】最新定制 穴塞胖次 自慰喷尿表演 肤白穴嫩
9fb0581b02a2b3f281e3acbbe2c3bab7a27cc488	341373933	1	mfhglenajohnny_mobile.mp4
9f26d589a063163f320c3fb5537796e4f69747a3	4296693702	3	Black.Narcissus.HD720p.WEBRip.Rus.BaibaKo.tv
9f95d8782373f5ae2b2e085c616f85644f2652be	938572760	11	11.漂亮美女新加坡留学生性爱视频流出金毛男友操得好卖力3 气质超好的c罩杯眼睛美女模仿舔假鸡巴技术，被干起来肯定很销魂
9f56f664ffede1b58331b6e33cd8478079728bff	4229796872	11	Ryuusei no kizuna
a030ee2e42a9bfe8f8db7c67bad5f57dccd2ec5d	354295991	1	Henessy.Canela.Skin.Henessy.Loves.To.Share.A.Couple.DorcelClub.11.01.2019.threesome.mp4
a0c227aa3eb0eda6c1a0246a732ad33ff6a4085f	1818811794	30	58.sdam027
a053c388d345c0f098d941b5bdb943da58eafa6d	1538244338	10	04.tokyo-hot-k0729
a055563c715fd4be90cd732e182c036d8b3b467e	174246370	3	丰满漂亮的美女刚进房间就迫不及待想要,把男友弄硬自己坐在上面
a047d78d32a0d64245d5fbdfe07c7102dbf392bb	4689019648	14	The.Year.of.Living.Dangerously.1982.DVD5.NTSC.Multisubs.Cine
a0c2e81d02c91330e6c211d52e78f017da1dc4c0	543100229	6	www.lyrics.lol - James Corden 2021 02 04 Michael Kiwanuka XviD-AFG
a0603f76e45920340cb6fa9bab3af58b1e1573d8	16652049	1	6918427.ls
a1ddbebddb675c49b0abb49eb9c059ad2ce22c19	1172598471	62	35.ecb076
a124263d1e086eb56383f3125d4b4531faf14752	6748545	1	Семенов Л. - Стихотворения. Проза (Литературные памятники) - 2007.djvu
a18813ea23f8fc47e97ef4a2074f66fbfaac889d	732973056	1	The Stepfather - Ojczym .1987. [DVDRip.Xvid] [Lektor PL] bodek75.avi
a12e176db95492659fc1ace45297e9abed1f0ecf	427229262	27	2021-02-06-2-6
a1548bfbb48b083bb791200676e29c57f84fd3e0	272082462	7	www.Torrenting.com - Unsealed.Alien.Files.S04E20.First.Contact.WEB.h264-TASTETV
a276bcf5794116e8cfa2a753cd3d1d3348241e09	14717334	1	BBEdit 13.1.3
a20ae588c237f0a4fb319a744245853ed302ee0a	498421518	4	911 4X1 HDTV Castellano www.yadixv.com
a209eec15b2d05c30fce74ced5a7b8edf87bee85	722851905	1	OLE DAMMEGÅRD - Terror In Denmark. A Dark Conspiracy (Age of Truth TV) 1080p.mp4
a21087a3bbf1a21f0dadc5dd5a9f3a7c4f715c9b	1160546932	30	ABP-314R
a2962d00ffecc7797f432a139c3c83b5a9d2c4f0	89571410	14	SHARLENE SPITTERI[MELODY ALBUM][CDRIP]-JOCKTHERIPPER
a381e34b96a5fffc6dac5f01ba8ee25d0c145515	6986539	3	Software Engineering A Practitioner's Approach
a3f239cd074aed98e0a23f6b809cbfe9df007a39	1317205424	2	DickDrainers.20.10.12.Blake.Blossom.Sometimes.Blake.Just.Doesn't.Understand.Him.1080p.HEVC.HQ
a3e96efceae8fba467063199a61b5620272fca5f	1119984184	2	AllAnal.21.01.16.Paisley.Porter.And.Nia.Nacci.XXX.720p.WEB.x264-GalaXXXy[XvX]
a393938592263fc5fa606fefe23a8a14c57e5871	839647292	10	TVBOXNOW 情逆三世緣
a35520d5c89eac4a032bbd6c4202c85ef989ad7d	582097997	7	13 贵州兵哥新作-情趣宾馆各式姿势无套爆操极品173长腿高中生校花学生妹 肌肤白嫩 长腿诱人 内射特写完整
a38bc50e534785d130c6e028c31ee8602a97da9e	327097762	28	VA - Hed Kandi 88 - Nu Disco 2CD
a3202b197157b2749a577265e68ad564958147ab	128869708	10	SKURM - Time Warp (2018)
a3a6348a0c0fc4a7e1c69f28e41196bb9ed407cf	1690872472	1	Watch Your Wife Olivia Austin Your Wife Olivia Austin Fucks the gardener while you watch.mp4
a4aca4f0a467ca887fd166b133f3244b2c14af10	1123262789	56	12.Pimp My Wife 3
a48e03191e34e98958799441ea488a55e10eca19	3993643987	12	ONSD_230
a43cea2f6d46a2ee241667fac9c65033bb9f0a26	1670972380	62	VA-100% BASS-2010- 3 DISC BOXSET IN FLAC BY WINKER
a47e49fe329c1b335868330859892506ae38c130	1237031017	50	49.LAF-21
a4f1372fbac97bc18e781f3997c4abc04ec1b374	4214077192	14	[爱伦坡的丽姬亚.独家官方中字版].Ligeia.2009.WEB-DL.1080P.H264.AAC.English.CHT-OPS
a4a9af4751c9879983af646a42cecabb69bb3682	149920	1	Graceland season - Downloader.dmg
a4d7948911d24b7777b60a69f1a0671d77c3adaa	444189227	1	[Nekomoe kissaten][Goblin Slayer][06][1080p][CHT].mp4
a549bb879851f682b45690f13dcbf314dd0d5a1d	455585868	4	DownblouseJerk.21.02.05.Dolly.Feeling.Dirty.XXX.1080p.WMV-Narcos[rarbg]
a529adc3fd344f84b8158105eeab982818fb5a32	4256306412	1	Cock Inspectors
a51cccfde2085bc05b9b739b2502a049ba9c685e	495141820	30	Romantic Ballads Vol. 1 (2013) EACRip FLAC
a5402135d25ff702a6be397ff27366f112c926a9	72816640	3	UpskirtJerk.21.02.05.Shay.London.Cheeky.Little.Flirt.XXX.SD.MP4-KLEENEX
a51823eec61138087530880f737e6bef57de81b5	331847863	1	Brazzers Exxtra - Sofia Rose ( Load Size Jordi's Max - 16 12 2019 ) PW.mp4
a5e4a8c3dfe0559158aee77491f47868dcc999b5	3501197358	4	Sperma-Studio.21.02.04.SperMarie.And.Krizzy.XXX.1080p.MP4-WRB[rarbg]
a5585a9a7d8902599693b0c543bc16f4aa6858c3	332046591	21	【男魔小天】春节前最后一场，告别之作，约战小柳岩，模特身材大胸粉嫩，00后清纯乖巧又听话
a51511294013ad35831944ed91718b4f423c7dec	480409954	1	The.Late.Show.with.Stephen.Colbert.2016.07.25.Allison.Janney.Anthony.Weiner.Ryan.Adams.CBS.WEBRip.x264-Nada.mp4
a5e410087aceef34a8dc337142746385522a94f1	204911756	5	91国产苹果8新作-98年毛没长全的女神小嫩逼迫不及待脱掉衣服坐在上面操,搞完一次男的还要干女说：你太大了!
a683de2e316b9771b10fc8447d0f2b7950161c1a	1777860590	4	Triassic.Hunt.2021.1080p.WEBRip.x264-RARBG
a7d52b9f3ed4c194776f23dc72bcd62fc3fa4a39	235749868	13	20-18 (4)
a7a0f784bf45bef53527a0e2cdbf33b16af61589	680272169	104	200GANA-1942
a79e4761041f49df7f8902057ed5202ff11e40d9	149920	1	9 1 1 season - Downloader.dmg
a777549e2f0374d55cb2b098144695cf868cafef	1127608168	4	PornMegaLoad.15.04.08.Tarise.Taylor.Former.Raiderette.Gets.Big.Black.Cock.On.Camera.XXX.1080p.MP4.KTR
a8ed24e1e30be07af9e2c329c5d803ed256ddc1b	1117680243	99	NATR453C
a8e2281d6f66244342d312cc96232ac4fdcc6c4f	813865	6	swizzle_demu_Srp_201903
a85823961a8e8faf615f06fead7c655b1611ed56	22538653	2	DOOM Eternal - CPY
a8857f5be001c3543330759a5a68d610511eb084	2066032707	62	60.yrh139
a82a9875b54abc224e743a3ceceda8e14e0d6390	1074118825	1	PBS.The.Tank.Weapon.of.the.20th.Century.PDTV.x264.AAC.MVGroup.org.mkv
a8006c8ae77c16b5a67ad006c241c2eb765dd9a9	885522850	15	236302327@www.sexinsex.net@pacopacomama 把高爾夫球作為愛好的熟女 木村彩
a8be51e53a95be8341ef3bac5aa27ef58579ded9	57272819	9	Ummy Video Downloader 1.8.3.2 portable by DRON
a900cc3b455bef4a9b296507402b6730ca9cdc02	223857815	1	[HayaiSubs] Ajin - 03 (720p x264 AAC) [rich_jc].mkv
a98755c896b8b70e2dc11ecce7c4c588c8338a02	1789588314	4	Silent.Movie.Plus.1976.1080p.BluRay.H264.AAC-RARBG
a970beeed62476b8111ef38b269dd9e70a897a31	759366226	5	Familiar.Wife.E05.720p.FIX字幕侠
a9b980b1d07e02c57e3313e1590344df14820c80	2308440076	5	HD-xvsr-330
a9c285719d3571c9d3cc347c89bf4019e99cf687	1854328545	1	袒露新生,Strip.Down.Rise.Up.2021.HD1080P.X264.AAC.English.CHS.mp4
a9a4bccc3e65a6d48993b04be89bdcbeaec04691	180314466	2	MeetSuckAndFuck - Kristi
a9b0e9cc74f8922bbbd2afe7b2567c729aafeeda	1277824873	7	her first lesbian sex 17[silverdust]
a9ae42785b4e932afaa618f66ae05b484394defd	2005106308	1	1pondo-040518_667-1080p
aabf6afddf67620fd4bd463388a1a673cbc8fc44	155924228	1	meetsuckandfuck Aletta
aa42e4e2086766810c1659345d61034892663b4d	524221984	5	05
aa9b60bdfc7ba996a11d4dbdefd623de6850df73	223842373	19	TRIB-0193-FrankRGI@Touch99
aaccb1dc79f7e396d82b9eacb4bd51521920658d	8400813239	2	Introducing.Dorothy.Dandridge.1999.1080p.AMZN.WEBRip.DDP2.0.x264-PAAI
aabb2b4349c5ed4089f6d038a4451a9c014e2499	183022967	1	Not.Going.Out.S11E05.720p.HEVC.x265-MeGusta[eztv.re].mkv
aa39e2e88262276054230d3af84367d0c4526b9b	359006732	2	Samantha Saint is Completely Wicked-Samantha Saint, Anikka Albrite
aa592760917319786d1cf116a995d74c7b67b19f	4438888781	176	[SceneLovers] - Conexão.Beat.2013.O.Som.Acima.do.Bom.Gosto-X-Pro_DJ
aaa3db4c078c9db653674e84d18e9d9ee0938ad1	816046766	2	(18禁アニメ) 都合のよいセックスフレンド？ (DVD 1280x720 x264 AAC)
aa979f4fc96fe0f0a1150b52ace0000e38197fea	286523508	11	手机直播靠奶吸粉无数96E奶吊钟巨乳萌妹小三胖最新珍珠丁字裤秀嫩逼
ab9e1c9b07dcc9ad23605fa8762274a933493105	2940980128	12	Bridesmaids 2011 BRRip 720p x264 DXVA-MXMG
ab1274821cd09c36019196867c34e4b12244d745	1503902416	1	Factorio-v1.1.21_setup.exe
ab32a5a4d2166a17822f24e56a32a010d802de52	480944018	1	[MyFriendsHotGirl] Lena Paul (22411 - 28.02.2017) rq.mp4
ab3928a4977bdd6d28e2d2adcb5fdf9c0e920a53	18492731356	75	上善若水@www.sexinsex.net@【BlacksOnBlondes】系列七部高清合集
abaf7fdcccd1540ff2ca4ae883d5be8572f4676b	1689443002	18	Hustler.Platinum.6.Young.Girls.in.Lust_-_Hustler劇情片-淫蕩小妞
ab22e3263544de6cac62c9bccbe696013623b4dd	1112454303	14	1008@chikan@AUK9LVR216
ab85b00f520ffaa9e45fa5fb45bc174dc950c5e0	1709204130	3	RCT-506
abccee1113a3c262778ebaaf8bef5cc259c5a1f4	264809785	2	이달의 소녀
ac9a50126902995ef8792dfce122823a7dc48520	835156128	1	Australia.Remastered.Wild.Treasures.S03E06.Tasmania.XviD-AFG[eztv.re].avi
ac6b59710e8c02731621d4ee449da3a149f67e23	829164882	1	海哥吃宵夜灌醉美容院老板娘带回宿舍把她摸舒服了主动迎合各种姿势啪啪
ac387948203df7b676e9ce9dbc9709a22e02a343	8387526208	1	PLY-002.mp4
ac8df0db344d886334de1dedf28de06c1b7f5986	2411744902	3	Lawless 480p ac3 pl 2012
ac45e10aac7364662949a11070d47c8cd798c69a	367446016	1	One.Tree.Hill.2x18.Soli.Con.Se.Stessi.ITA.SatRip.XviD-NovaRip.avi
acc0a6ad51fc99d2583934a38ab2aebb89c035aa	1381210888	2	#_dv1625
ac958c30c0f38ba685bae951790660264f1ecdbc	1621602048	104	IPX008C
ac391b51be93a0d6f59415720d4121120ef28df4	455338116	1	[-Babes-] Sharon Lee [-I'll be your naughty girl-] **NEW** 19-June-2015
adb1040493d955ff790e6a7045470770235f6622	1907344204	2	Resident.Alien.S01E02.Homesick.720p.AMZN.WEBRip.DDP5.1.x264-NTb[TGx]
addbccf498033e5f96e9f3892ed5270d43dc633e	52680620	1	[Maka Fushigi]Hina Meikyuu l El laberinto de Hina [Espaol] [Higeteca].rar
ad305550c593f23aee8ac1adfbc740cadb4fb588	2883592844	1	ロリCos_15241.rar
adb64629c2fff6e8f31303e78ce35c36bcbd879f	547475192	17	极品少妇在宾馆和公司老板偷情时，边打电话边被老板挑逗 在酒店上班的28岁极品骚女把逼毛剃掉后超可爱国语对白
ad6ed80e2dd9a6ed8c008162936b5e1a8ca85cc9	1598139739	7	Valhalla.1986.DANISH.1080p.BluRay.H264.AAC-VXT
ad8f5794abcf6353ed9f062d4dffbeff4f8f32d6	288904050	27	2021-02-06-2-26
add01e8385a3ebaed9d9109829d3b5b707ae89d6	743925752	1	[AnalOnly] Rebel Rhyder - Advanced Anal (20.01.2021) rq.mp4
aef3b6b046d27cb9a87ca8ce4ed698ca3677c166	792966185	49	161028-猥琐大叔潜入三姐妹房间轮流操了一遍-1
ae38f5bd106172c10e18e6a86cd788cc754b0ebe	25280234	1	[Ginhaha] Medusa (Fate Grand Order).zip
ae8a24f163671850150e659fc9f8394df93406c6	177508385	1	[FLsnow][Ushitora][21][CHT][720p].mp4
aed729cdc88f6901cb2b2d98e56d6d1b9c847dc6	538232881	13	【TXH】Heyzo0090doSdeyinluannaj
ae0e823d3ba56436b8807c88169f2edf4c0571c8	1154315875	2	AEPP-033 By Nicky
ae945f04d5463319ed5dd4cfc15119c645c346de	739535690	4	IPX141C
aeb1a8d98a2e638950aeb2f3bf98c6f0026509f3	1514009437	1	[RealityKings]Mary Jean - Stick It To Her (05.10.19)[1080P].mp4
af3db72a1f949f71b03d59227e5864b962456e03	673578159	1	Mud.Mountain.Haulers.S01E02.HDTV.x264-PHOENiX[eztv.re].mkv
afed8b34f29dba901f41b3b1671b13f1313a8624	622721036	5	Cam Session - Daddy Tore My Pantyhose Fucked Me In A Chair XXX Adult P2P
af99a6fe1dd5fe84c11b7296f2f9da2ebf09cd3b	692043901	13	HAVD-297
afcf49d82da95c63e04f60072a17e8651a9d9c3d	4671602688	1	ПОЛЕТ (05-08).ISO
af8ba0aaf6ed3a8f9e9ee52a89b26fb334264945	665185129	4	A.Fine.Pavement.2021.WEBRip.XviD.MP3-XVID
afe4497c93c5379087277d65f0c4d74798dfbf60	969276567	1	Showgirls.1995.720p.BluRay.x264.mp4
af9322b4d3316639b9120cb45a0765b35d1f7a7a	149913600	1	Toy.Story.Toon.Hawaiian.Vacation.2011.AC3.BRRip.XviD-Rand000m
af060e1399d3fa078469da74d958f0b2e082f7b9	133060867	1	Miyazaki Maya Daizukan 北米版 全2话啊.rar
af6b04843f968619ee497608c15dcceff454b3ef	1055855496	64	n1066
b0056817bef3973104b7e30021c792af255bbf54	2122989100	1	Nekrasivaja.liubov.2015.WEB-DL.1080.Files-x.mkv
b0a15cc2a49b7d1823f7711a10581bb3ab38ad6a	2441447450	2	[EX-TORRENTY.ORG] I.Hate.Summer.2020.PL.720p.WEB-DL.XviD.AC3-Yag
b0f0140b4e35f4ab5c0a5b2add7b05c79cc36e76	1363894048	3	ONED-810
b08d9a2e1193a2d6a8a67b8acf04191624efef86	1099654650	34	鬍子拉碴的牛人口交白虎鮑魚 可愛小台妹陰毛濃密說話嗲嗲的 帶著狼牙套從後面猛操清純苗條的漂亮女友 太爽了 爆草甜美小美女 這叫聲真棒
b0de26204735e4410cacf81e62d144a6e2524ead	1742413543	110	KAWD932
b04a13bb6196a01cf8001b0aa4ecf5d89a12c3af	739314350	3	雪至夕霜@草榴社区@L'ILE DES TRESOR家中出轨
b0f15ea820203f3b8937ddf9cc90bd42d2c7f7bf	12131187726	39	高能医少.1080P
b05b3858970a4bd682a91cbb9d01dd4df8a08fca	2346196992	1	Kriminalnoe.Chtivo.avi
b08bc1c963b615eb36d1ac7741ebb193def174d6	512476586	50	Pure Pacha Summer 2014-3CD-320-2014
b01a38240a3d0537be4dcbc191e218845283f6de	2298755986	29	C0930-hitozuma1347-FHD
b0c5e98552e8b5d4db3b540c308b699eebacb6e8	131225756	1	被表姐狂干的全过程.rm
b0ec70bfb0da4198370a7c2cbf676fe8387c11f6	612620104	4	Jersey.Shore.Family.Vacation.S04E11.WEB.h264-WEBTUBE[rarbg]
b1b79a3b9463679ef0b272e73c19839ab26b8208	332645256	1	[PocketUniverse] Super Sentai World (1080p BluRay).mkv
b1f7c65616c1dd063500b90d69d764e3be19e114	1423480402	7	olo@SIS001@chrv-011
b15ff73fc72fdcdfeebfbcccd856c626aa9e891a	1363673088	11	RBD-623.かすみ果穂.給先を失った映画監督の妻 かすみ果穂
b1e6af592a3610275087dd44b5a564a5e05b823b	909564942	56	17.Tiny4k - Elsa Jean - Tiny Gardener Pulls Big Root
b1d5986d9d340dac05321512f09430f9f7cf2b8d	68227589	1	Busty blonde Krystal Steal gets what she deserves.flv
b1f7e7d9e7e3fed2b84ff11c5bc7a8cbd3971d8d	480127	1	Cast_P_C_-Dragons_Oath.epub
b1b5fe6595c6ea8f214d12f8f0132cb538eed98e	2394235939	147	IPZ298MP4
b14111ee799868d5e387598d004bae2331504e9e	8207400960	1	TS4 - SP18 - Paranormal.iso
b1c20d73b92716f1d320eb87bf899343bdecc8cf	3483672078	6	The.Mallorca.Files.s02.WEBRip.XviD.Rus.BaibaKo.tv
b15f371c48221394a179df6e7ca73dfad2c897d7	1479384789	4	Cowgirls.vs.Pterodactyls.2021.1080p.WEBRip.x264-RARBG
b1e3a637420fede2a380cb94bd586395eab596ec	714105419	9	KAWD-376 萌系美女的角色扮演~山下優衣
b16e97a0bab88503a8223eea27643ae8f3f586f2	2160010557	5	259LUXU-1369
b1ffeacda7e8e614c9804adcfe9c043e42d4b7f5	1393807321	1	18eighteen - Alice Green (Nerds Are Some of the Biggest Sluts)_1080p.mp4
b2c49a3703d7f0b6fdd5c6b591801c702ece5e04	60711055	1	[Nipponsei] Shakugan no Shana OP Single - Hishoku no Sora [Kawada Mami] 320k.zip
b26840f5d268813588829edf37156fd78733df24	1623731581	4	Superstore.S04E18.1080p.HDTV.x264-LucidTV[rarbg]
b2b95b073376818db8f6157ed56dd2cf70be3233	2496954246	51	1pondo-070915_111-FHD
b2baf588485e5d869f8f213bed9c109a670d615f	1133480418	2	[7sht.me]逍 遙 龍 哥 帶 極 品 美 少 婦 開 車 出 遊 野 外 車 震 口 交 大 雞 巴 滋 滋 有 味
b26245bfe3a7b3f6bb95e78c633976d755653e61	10737139067	1	The.Guernsey.Literary.and.Potato.Peel.Pie.Society.2018.VOSTFR.1080p.BluRay.x264-ANONA.mkv
b2ffb0f25eeac38210d9c5ce7f540187d9ef94a9	801744	1	S W A T s04e05 720p - Downloader.exe
b238e07943e5762154824fc7addb11bf817aeed9	668297533	163	15.090413_987-paco
b2abc2d781060c5787404e8792962bc3ce3e26ef	395350728	49	Ivan Graziani - Rock e Ballate per Quattro Stagioni-3cd-2017
b3cb6126951bfc00748f55bd8e20b8b14a71ff33	125302587	2	MeetSuckAndFuck - Olga - Olga Shy In Hook Up Fuck-video
b37b5b3d365e44e068892b3f1e33e99f308f80af	1996602437	4	chikan@T66Y@TEAM-099
b359050234247fed604f8ee7d9a8930888100cb7	367012659	2	Hex.1x04.PROPER.DVDRip.XviD-BiA
b3329b456b360a083b30c64c4cc8aff9e30444c7	362352016	1	Avast Premier Antivirus 2019 v19.4.2374 License Keys
b3e125c3a140ede6bd58185078cf0415610d61cd	441427534	1	Political animals - 1x01 (EliteTorrent.net).mp4
b4197141cae61c5ef3b40ca03152a44efb93fa0a	980345417	155	heydouga-4017-240-29
b4f5b16294d58dd64830f0eb41f9321c91bc8d0c	1191715047	3	ALB-154
b4fc369ca3d583100de59a3d1576a2ebd5555c58	751434307	21	[魔穗字幕组][GOLD BEAR]ぜったい遵守☆強制子作り許可証!! 2枚目～ぜったい中出し～
b4168ab4d6b306ad8d09d1be9c169f7d4d1d5d69	55118127	1	JPTT091.zip
b49f8ee79e346de49ccbd57f4483b06032a32c9c	1435309306	8	gs019
b429e42fa060c246a62b5e70f309c25d9a7068a3	1470318258	62	02.migd716
b481516415cac0b9e2c224b02cc324cfe84987d0	3273304103	1	Znakhar Znachor (1981) DVDRip-AVC.mkv
b40c5576bfe05a94392289aab2a42bfcd8d485db	27970088	1	(C85) [Aka Usagi(Fukuyama Naoto)] ISHR (Infinite Stratos) [English] {Tigoris Translates}.zip
b5475282b45ae42e865b6442d3fc0017c2a52f33	3253855107	1	丰满骚女【单单妹】车后座翘大屁股扣逼，户外河边脱光全裸自慰回家牙膏抽插
b56ed4c04ecb27af2238151ded5a7a6d3d27e73a	192161012	3	The.First.48.Presents.Critical.Minutes.S01E13.480p.x264-mSD[TGx]
b59c2536489ef6d02b315c97d57f18929623956f	57092575	12	Alceu Valenca - 1982 Ao Vivo
b53b910dca9b9836b4862705e92f245ff83e6771	1828716571	9	迅雷仓[www.xunleicang.cc]屏住呼吸Dont.Breathe.2016.1080p.WEBRip.x264.AAC2.0英语中字
b58ae9795bb647bb273676b8e6741c9df492f9c0	280736519	2	SpankMonster.18.09.11.Joseline.Kelly.XXX.720p.WEB.x264-GalaXXXy[XvX]
b5f66ecbd2d38da6fc371f67b48e4af3321412ee	2437026954	4	Jessica Young - When I Fall In Love (2016) [SACD] (2017 Venus)
b6b29ee90cf0a03db03ddc31bff6afffbb13b406	737088614	1	[SubsPlease] WIXOSS Diva(A)Live - 05 (720p) [428CEC92].mkv
b627a63128a0701daaa6ae4e805645d6b0735613	1142340834	2	5KPorn.20.03.04.Naomi.Swann.720p.HEVC.HQ
b67db8637655be3ec0a66716e013016182dcad2e	1767170242	261	Racer X
b693c4ccfbdfd1a53980c47630a7e056af8e865e	1468190720	1	Lost.Treasure.of.Jesse.James.2020.Pa.WEB-DLRip.14OOMB.avi
b63b4bab19e7141b0e4ad65bfbfc6dc0dfb70b61	451897664	5	[Acceed] Dankon (Manly Spirit) 2 – I am Genki
b63830951b717a9c4f02aa9dbd5d26a12be69898	35620343	3	A Complete Collection Of Math Puzzles A Must Read
b61e2e2e1186fe7a151b3f2cb0c4b6c05a6288ab	549224314	1	Evelyn.Claire.hardcore.mp4
b64a5953c1083a7da71b676cc31f3a4ee85bfbf8	1355692152	7	www.Torrenting.com - Million.Dollar.Listing.New.York.S06E09.1080p.HEVC.x265-MeGusta
b7d75d1fc48b05d0ebf86b61096f40f4c3ee2a25	1612335691	98	UMD384
b726299cffa7bd8b5e6b821d2e125f6e5dc9e32a	636747962	37	xiaoyang168@初裏公演!裸體芭蕾舞演員初中出~小嶋実花
b71602ef5a69bf921a4b0eb02eb9a013df0ce931	6284294156	3	Machete Kills 2013 1080p HDTV x264 AAC-KingStoner
b79915490cfb900089e79e3df061e08accb7c236	1273496153	23	MIAD512 AVI
b7c9eae2680faa1e230ee76a6369e6f2893e913a	43054608017	9	Just Cause 3
b7b1d2afded07278d15982565fd416f880437948	823796817	8	caribbeancom-031418-621-1080p
b7ecb9323f29957350df5632b3a0466aa74e0c4a	472021933	1	[Norestfortheass com] DAP FOR LINA.mkv
b7466a6513023765f1213b40740a1e6a986ccc77	2834342174	1	阳光电影www.ygdy8.com.我们永不言弃.HD.1080p.国语中字.mkv
b75dc77e07526a8ecddb72e680b91e0ee4dd68b4	2730832127	6	95cm & J-cup
b734dc940ec1ff516285bce87cad386a2b1ad4fe	45018770	1	41052_(homeporn.tv).mp4
b8a0b3284aeffa511136b4e256d50430a101ab2b	1297087401	3	JUX-811
b804fa2008a44c59e24df057087cc2e1e6bd0a42	289027305	1	[幻想乐园 原创发布][Hxly9.Com]Beenzino的求婚大作战210205.mkv
b851e1fd8ac75faa00431a29efa94ac766946187	774901045	3	Disney Princess Protection Program (2009) Norsk Tale - Nicemaniac
b85c72ec89e4d5e86ed3b5447502fe1a46f180a4	1214676079	7	HEY-017
b827884d547b338076ba085417ae89d00c2dedc8	4218807	1	(HaruCC20) [PEPERMOON (Soraumi Riku)] メガネはお好きですか (Hoozuki no Reitetsu).zip
b8f0fb76b2a262e1109e36dfd805e001757c57db	9180609332	5	[哔嘀影视-bde4.com]神探夏洛克.第一季.Sherlock.2010.S01E01-03.BD1080P.X264.AAC.English.CHS-ENG
b81b025625d02df8c1c75b131d9d281dfb9a34fe	5928696	1	Walter B. Gibson - Popular Card Tricks.pdf
b99845c72bf54420fd777ef2d068c749fe68d959	1059147109	1	My.Big.Fat.Fabulous.Life.S08E13.Big.Fat.Brawl.720p.WEB.h264-KOMPOST[eztv.re].mkv
b9528bb43ce106eac52563a78f2a47b77dd7187b	477853374	1	Katrin Tequilas Sweet Pussy Covered in Hot Cum 020521.mp4
b9de36179c87a25bba7e00d10306c7aadbca70a3	1243402365	1	Resident.Alien.S01E02.720p.ColdFilm.mkv
b9b8e62044eb5965a93bd7d502d05ec68310c8dd	40657620	1	(Yarou Fes 2012) [Rycanthropy (Mizuki Gai)] Easy Rider (Fate Zero) [English] [Leon990 Scanlations].zip
bac0a2ea88938a7a5c1988804c53808cb187c407	4240683008	14	Teorija_zapoja_[torrents.ru]
bad9be9cac5b81484cacc28e81c33d73bef25807	2934332455	7	finh-053
ba83f7a21ea7246ee931a67419978f113e196c2f	531976021	3	DMS Night24 File 099
ba3380a01a37f355481d66a86b30018adcd1de47	2446061568	3	American.Gods.S03.rus.LostFilm.TV
bab7d0d6e16bf896cd40a7fb601332662dd79789	110613582	26	VA - Energy Dance-2010-MFA
ba78406f8d7f9126ae12db0a37bcc5b07ee0ecc5	22537583	2	Internet Download Manager IDM 6.38 build 5 incl Patch 32bit64bit
ba3c696fe3034525988bb170983ef675151178c9	1801785731	7	ATOM-157
ba981c5e7c8310d25b89b3c51a0e68989d748ed3	585189334	2	A Fistful of Dollars (1964) 1080p.BluRay.x264.Full 553MB
ba5630b10a9f678197e729c8e4918c23d688b6de	912736800	21	[nicollubin] Michael Cobley - Ogień ludzkości Tom 02 Osierocone światy czyta R.Siemianowski [audiobook PL]
ba0df89f9ed07ef8521dbe76843fb0055c1941ef	34127104073	592	Blue.Streak.1999.1080p.CEE.BluRay.AVC.TrueHD.5.1-FGT
ba345a5d042e4dd4916f573bc79a16a7a1e57aef	663937757	33	122111_01 天然～面接蔵出映像～ 橋本美希
bb5d1496dee146fa7ea3c5d382d57bd0a392e508	722205336	1	Mother Suckers - Lisa Ann - XXX
bb0600cba531847301be3235113c5b7a7ddf0636	11239275357	1	Freaky.BDRip.1080p.pk.mkv
bb566455adc74df6393485f440448ad439f5aa4a	2537160332	5	【ses23.com】heydouga4030-1536
bb8f33f98dd1fb546fdfe4cf581ec7d43ef0d061	341759374278	1	. PASTA EVERMOTION.rar
bbd7784d14a62938dffc878cc83cc39ba8861cb8	162656153	1	[HorribleSubs] Cardfight!! Vanguard G - 35 [480p].mkv
bbea0cb00f38691745c861e2b5bad547c16d45bc	19212197	1	(C77) [とくだ(上田裕)] Love me tender (神のみぞ知るセカイ).zip
bc84b167493c3deb156619b5a6c1b2af7bde0c02	153919009	1	[HorribleSubs] Comet Lucifer - 03 [480p].mkv
bcfab79cc706712c7834ecafb069785775986327	1255628678	57	30.xvsr198
bc8e383807d9ce8dceea4609de0ad4fae5a85848	1644838502	1	【王子哥专啪学生妹】土豪哥连干两次沉迷刷抖音的青春学生妹，时间不长次数要足，不然对不起这白嫩美乳和粉红鲍鱼
bc2241e0ce324eb124081768e96a6073a9f7384c	1780724589	1	Portillos.Greatest.Railway.Journeys.S01E02.1080p.HDTV.H264-CBFM[eztv.re].mkv
bc058844bf4e5d169519833a1d0676d54b526b8c	1392291311	15	C0930-ki210207-720
bcae5f062a6e5c78e48ac921cdac9bd41199af9d	457811319	1	MilfsLikeItBig.21.02.04.Brooke.Brand.Dont.Be.A.Dick.XXX.720p.MP4-XXX
bca3908fb8e451a55727ddad38d0780334b77a9f	1524305041	15	H4610-ki210207-720p
bc79ed468cd7a1e57d0aa2211e5b277da70531de	3151280072	32	05.dasd581_hd
bdc90d712bd2d55eb8f6c266c553a0bda7d86f0f	2842838158	1	Shae Summers - Sexy Shae HD 1080p
bd20c14e90a1bc8b3a628e3c42c7de53ddc5262b	2892271616	1	Final Fantasy Type-0
bdecd79263025f2074164a63a6ed61cdb5bce75e	4074219486	13	12 花椒绿播高颜值女神【曼曼man】下海黄播大尺度性感情趣内衣黄瓜插逼
bd6f060c00210d4b6cededc8b6ed25802025ca6e	6683623682	13	20200215v.(HD1080P H264)(million)(84mkmp00321.0w4sangq)七瀬いおり 絶頂敏感セックス 激イキ初3Pピストン
bdfd7bb29872edf16fea95e4a5e377ad2ff29e75	1135714519	7	olo@SIS001@XVSR-146
bdf4224ae3bd050740a905584f16d4f01d7c8da6	462358369	27	2021-02-06-1-12
be93be8bacc1f0969a8766d7fbdc1d344e820f1b	2592341908	9	Agora.2009.1080p.BluRay.H264.AAC-RARBG
bec70c29e8d8bb27292b64f74a3f5bcd83fb7327	301541403	1	Snowpiercer.S02E02.WEB.x264-PHOENiX
bed19ccb42cd543ee2ff1df2279d1fcd15419137	41245155	1	Chris Medina - Cut Me (Live Nyhetsmorgon 2013).mp4
be2b1ebcfd383c0d3a5a55ca8f07d84d0ef4e188	1708003037	3	SZPIEG [2018]
bed19376d01d0f0b312b554b1ab953574e808ba7	1648857193	2	Shadow in the Cloud (2020) WEBDL-AMZN 1080p ENG - ZeiZ [small]
be09b27f6e27eedbf113f549ed6214115405c9ca	666985558	1	sg2685-WB3.rar
be5a37ad797ec3d99c7b72b52a699135e42fd4dc	1134996641	1	Fear.Thy.Roommate.S01E06.Uninvited.Guest.720p.ID.WEBRip.AAC2.0.x264-BOOP[eztv.re].mkv
bf38651dee0ced15655868e94c01591765f05c27	290389124	1	[SSA] Project Scard - Praeter no Kizu - 05 [1080p].mkv
bff84b9cdec41a5fb278637fd8c4b4589b4c8d3c	761151736	13	Joshikousei no Koshitsuki
bf99f5753fcbe628c4061446ac3e68e28d70f63e	330812707	38	022418_650
bfa27f7f8a7429495208de839beab6f4f64e1778	503560866	43	Carib-021414-004-HD
bfcd605443821b5a212dfe7380ef16b31cf4b78c	148376575	6	www.lyrics.lol - Desus and Mero S03E02 480p x264-mSD
bfbe9e74164b3f5367416bd1132d0442fabeaa8f	44926315	1	[かみか堂 (銀曜ハル)] 性感マッサージにハマってしまったバレー部女子の話～前編～ [DL版] [中国翻訳].zip
bf15a39f4d56eeaf874243027cff676a5807ab98	7037859	1	(C73) (同人誌) [プルルンエステ(上月まんまる)] つなぎとタイツとエナメルと (ヤッターマン).zip
bfcdcee751406ab17d549f2e3cd765639b257ac2	4680826880	26	Kokon.vozvrawenie.1988.DVD-5
bfc06b443bd97d076317ce5881ccefe59c3886fe	1396375410	4	JUY667
c0a18d81e8182c18bb57a9fc1f533f5928e48224	2451149130	1	Aryna Sabalenka - Ons Jabeur.mkv
c062105d1fd91ccede22408864e6ad218ecdbc3f	1291166734	143	AEPP063MP4
c0d27e71cce3dc89a43c88d5f58da15045cecd47	942883536	2	叶问1.720P.BD-RMHD.中文字幕
c0d580d40ed331ea4e37b95331f041b7e0d91559	768102243	60	20.21FootArt - Angela Allison - Foot Treatment
c01e42f0a2f9c630f5a08332de6c39aef74f0269	475107417	54	170421-白香港佬与内地情妇自拍舔完屁眼还敢亲吻-4
c03febc7686af84c38ef5f94fc30bb73b719d68e	736786432	1	sleepaway_camp_1983.avi
c0a83a55d60347d698deeba8a59212bf680e6094	793021479	4	can - 1971 - ogam ogat
c0bda64056ce31c779c6320083d2f46e9c3651c8	979796883	3	[ViPHD]莽荒纪 The.Legend.of.JADE.SWORD.2018.EP65.END.WEB-DL.1080P.H264.AAC-YMDR@ViPHD
c0dd441c699b8303c0ab3f4321a51cfbcdbdeae0	201965203	17	(2021) Carm - Carm [FLAC]
c07e899ce7aefc5df04eb9cdfa2158c8ebbbd8fe	3114447593	66	PublicDisgrace.15.10.02.Mona.Wales.And.Carolina.Abril.XXX.720p.MP4-KTR
c18807b0693f19e7379d53e411fc6fd1a05e4418	836501973	37	91新人EboArt盛世美胸系列第六期麻辣大胸喵侧45度角巫女情趣装 波涛汹涌 让人难以抵挡 广师大白嫩豪乳师妹许X珊周末休息到洋外教宿舍献逼洋屌草得她好爽
c1504fe4db2b19082a87e057c7b5904423ab831f	14468836	1	[kinntarou] Meddling of The Cat God (COMIC X-Eros #34) [Uncensored] [English] [FAKKU].zip
c1208e97f30fe57e2219cf10f0d51279f6ec4e46	227697670	4	Chet Baker - Time After Time (1989) [WavPack]
c173f54de3055a4722e78bc3c1441925024878bf	384598146	1	The.Breaks.S01E06.Runaway.WEB.x264-HEAT[eztv].mkv
c1f7ba24371a7797dbed262d54a777c522b923ee	149922	1	Elizabeth La Reina Virgen (DVDRip Spanish) - Downloader.dmg
c129604f4cfb26a2c145a59cfbcf64ac07fdb8fd	258474063	25	在家把骚老婆干出白浆了
c2234e464b62e29cec3c6de1e1c467e899ecd136	1762868320	4	Bulletproof - Temporada 2 [HDTV 720p][Cap.208][AC3 5.1 Castellano][www.PctReload1.com]
c204939cc065f014465eb17a9e38fbf3501c7d48	4617650751	29	Buttworx_闪亮电臀_720P
c23bdcdebf7897f67e8e811f79a06a6025f7d879	2529689816	19	yndh223@第一会所@100位女性一起參加研究JJ变化的盛會+ 众多人気ＡＶ女優潮吹大PK
c273e68ea505294c815744a0df0704a28695d687	549933335	26	新交的大壹清純小女友帶去酒店壹頓猛幹壹次就征服了 露臉 对着镜子拿着摄像机和丝袜美女地上搞到床上 操95后粉嫩妹子，脸粉逼也粉，最后口爆
c27f544b013aa8b9fb9f4be29da453906daa2091	812083408	155	Goran Bregovic
c2051db81ae159b36efe7036c54b6d0ae5bc0b97	1628817468	1	吸血骷髅船.mkv
c2ef1fe15c54d9de42db0b756c1cbd8d97cd21a6	757103927	217	2020-08-31漫畫9
c3a28b97e4a985616060c74e9d2c2befc3923406	958341235	1	[RKPrime.com] - 2021.02.05 - Porsha Carrera & Mz Dani - Two Baddies, One Massage Booking (1080p).mp4
c31f5df5f382bc3c7c2ab3cd1cafcc42f52eac32	460948834	2	OnlyBlowJob - Lisa (Sauna Sweetie) [.mp4]
c365a32f84dca6d4a398ad334dfcf08d045dd45f	9431976141	5	Your Ass Is Mine
c37a7ff2f5bb0499032eceba92ddbac3be67d981	1157656459	1	Под дулом пистолета (Under The Gun) VHSRip-AVC Zhivov [by ale_x2008].mkv
c31ed642d8268ef3863b75477942b592d6621fac	202970819	15	1024@POVD - Marley Brinx - 与女神共浴 (第一视角,美腿)
c33b572c1ccf1114c0a9ed31f719a37ab0a79fda	3962819856	1	Bajocero.2021.NF.WEB-DL.1080p.mkv
c3265316542fb82cb13be4e4e4bb7896660dc3e4	921149132	19	Spandau Ballet - Through the Barricades (Remastered) UHD (2017 - Pop) [Flac 24-44]
c35329bd0e3c20be26677dfe4cea8dc99e6ac3e8	1225258090	107	Y2021-02-05-05
c31e32acd805b563273309f871210dabd64693f4	180719180	4	Penthouse.14.12.11.Striptease.With.Ana.Foxxx.XXX.3D.WMV-TBP[rarbg]
c495a0e22cafc2d51be5f70ab30bd97a60996a04	149019114	100	性福的小炮友
c4d89edc25a9aaaa1e1d109f7fddcbdc4d3cef1d	1201117127	6	YOJ6LDZ142
c457a2d9c12375b4825c79ff9b36b19d9f858725	15068944953	1	Evil Dead (2013) [ukr,eng] BDRip 1080p [Hurtom].mkv
c4a7cace50aa3bffe38a7212cabdca3801b52334	462701308	7	FUFU-088 性生活久違的人妻對年輕按摩師的請求
c40fe392d135cd7dc82fe6402552b356532a0d67	8008261	1	[SSA] Inu to Neko Docchi mo Katteru to Mainichi Tanoshii - 17 [480p].mkv
c477f97afcf8af7c79819a52e47fb2eb5a730c6b	413865431	1	shtisel s03e05.mp4
c4d1dd7836237a9bd5adae6d8131db82e27a439a	8654602623	1	Io.Che.Amo.Solo.Te.2015.iTALiAN.DTS.1080p.BluRay.x264-BLUWORLD.mkv
c42b790a7de938e8d37e3704a4ad92a997db41bb	11489662362	17	Y-异常犯罪捜査官 藤堂比奈子 日剧全集2016
c48aca63dc5c2c4a01f86dafcdb96f6f303767cc	1128231958	55	HD-720pのpony哥復出第2部：再約零零後平模 蒙眼束縛道具玩穴穿高跟連體情趣啪啪(完整版)
c5b2efd2a8eb2149c1c2857aa9a8d248308e442b	732184576	1	Als.ich.mal.Gross.war.2019.P.WEB-DLRip.7OOMB.avi
c55c5ccf73ba9bcbf48212162a749a0a2b63d2c9	6689914880	6	EvilDeadRegeneration_USA_redump_48892
c527a3b4b6d40c7df54ddbb48d88d1978ee22fcf	8905827	2	Agatha Christie - Trzecia Lokatorka [Audiobook PL] [mp3@48]
c662e31666814184addb1d221c9df13731965f0e	444870265	2	Babes.21.02.02.Gizelle.Blanco.Dont.Fret.Babe.XXX.720p.HEVC.x265.PRT
c6600c04b2b661a8cd8629491fd60c2ea182952c	16746140	22	[Simon] Entendu (COMIC Unreal 2013-06) [English] [biribiri]
c77a3f41c42531c564ea44f5e288d7f47ab8a436	429206961	1	www.TamilBlasters.nl - Vaanku (2022) [Malayalam - HDRip - x264 - MP3 - 400MB].mkv
c72780bed0686e1abcccec906270f2d6a9d92550	265883975	28	Victoria Kruz
c737e3cea1c5a210888bfd84de5b45dcb08e3b83	2516179919	49	Carib-090215-962-FHD
c773cd49b3e9b0774b6137757d6bf163947e7fa9	6099377963	84	1C UT
c7f7890f8da28c65eed633e700fa24d1a44e73aa	1508884156	12	dmdg-037
c79e4245820de528d2dd56238013ccb7e62073fb	2052951620	53	AP330AVI
c8d7ca535ef19b4c224273018b040b96e1e5622c	106153428	1	Jimmy.Kimmel.2021.02.04.Tom.Brady.480p.x264-mSD[eztv.re].mkv
c8d472147b3682d32f56926476a4676b9ed4bc40	148668525	1	[乃藤悟志] Cyclone Memory (東方).zip
c895386de2baae1eef78495e7023454784832270	1703883	3	Windows 7 Loader v2.1.7 [h33t][iahq76]
c8afd3ad552473f4254e896f895e13d37bd74a7b	590086389	13	im520@SIS001@MIDE-125
c8d43b666c26ef393e14f209e00d2df9d9901d9e	1458616940	22	jux00681 僕を悩ます美しい叔母さん
c83f3b3fe3e3dcc28d1fb47d43e8d01dc7e506b0	376094434	7	olo@SIS001@MeetSuckAndFuck - Hook up fuck with a sassy yoga teacher
c87436797180aeeea3b6943ff8f0faf8ff27a8b4	1952023250	2	Realizaciya.S02.2020.WEBRip.(720p).shevanlk
c8201f4bd0c780b492a5c0736b9b218d35b543db	635456201	26	PetiteHDPorn-Piper_Perri-Sexy_Moves_性感誘人的挑逗做愛
c9068429bf39078e584c0b7198aac298aa6f3a00	1362163224	1	Inspector Notty K (2018) HDRip x264 Bengali AAC[Pherarim]
c9c6d5cfb562135dda90f42ccd452f44b8db120d	1682809281	33	20.Anal Slut Diaries
c90d1789fba4045974bed85b2c81d289f05b5e32	1609609824	1	b2t Ree Petra 003 - Supergirl.wmv
c930240b8c46279e67f5ca6e31335c2b292c153d	78582047	15	Matt_Nathanson-Modern_Love-2011-CR
c9f3bb5c5815f95b223fba98d8803f819dc37749	1028773938	2	Nympho.21.01.17.Lacy.Lennon.XXX.720p.WEB.x264-GalaXXXy[XvX]
c96d56ea4f2f9e6db7593b240c4566f6ee7e87a0	1329856104	3	DVAJ-154
c98a31dca1daac1bb396049510679946f570a2b8	1579717970	1	禁断之百合.White.Lily.2016.BluRay.1080p.x264-中文字幕.mkv
cacf733c4d751a1a2c136f4be920f7fcd7242106	1092792564	41	STAR345 AVI
ca8a6a691b901e266d9e5adc55244633e94ce513	426993105	1	23.zip
cad846c23e15cdaac8909e84c2f7493c4adfd830	1901639188	1	3D Hentai Tits 01 (Lollipop).avi
ca82d766cf3496c1c383302d1b2dda5b726b654d	2253177071	144	WANZ782MP4
ca114cc0f7a7b0cf508710403144a5166b1e1b56	1273114767	15	MXGS-190
cac0036b41c39c6515eff21283f30d7c33e16b56	408420579	19	rflzl@www.SexinSex.net@[8月新番][次元字幕组]くのいち_咲夜 全二巻 [RV_10](704x396)
cac8014b2ffbeac9d7da99b814e94d4898f0da6b	1669687296	1	Balibo (2009) [Ukr,Eng] BDRip [Hurtom].avi
ca932a820d0208cc10f10c115e4091ee69955e71	734623744	1	KBS 스페셜.세상을 움직이는 숫자의 과학, 통계.091108.HDTV.XViD-HAN™.avi
ca1704d84c2b26908ab8c36aa8b580325fd66fa5	22538671	2	The Elder Scrolls V Skyrim Legendary Edition repack Mr DJ
ca42b0511d83629fdb16d79cfccf8c9b929c56b9	22538644	2	Mafia II-SKIDROW (Mafia 2)
ca40f3c818bdc09dc7b74527fd154c050b7d51cc	1611986584	12	台北极品嫩模 性感大尺度拍照自慰集合 高清
ca31ef3a3ad835a68443d3569829bc2c701c5fed	155771821	1	[HorribleSubs] Gintama - 290 [480p].mkv
ca9f756452c3e0e8409b99076ad8da07556bdef9	1332851712	1	XV-911.avi
cbe3aa952e6133a13bec614bd281c62e5205d707	2473660905	30	48.jufd963
cb92f5f4cd7efd5d133932e281967e3760d4d424	2122522392	5	[Thz.la]071418_01-10mu-1080p
cb8a6f66ab7288ce82d1b903f447f8330d29482c	801744	1	pc-repair-v2-5-brd - Downloader.exe
cb5057303fbe98255840ece7918271ed92b04241	22647847	2	MS Office 2013 Pro Plus SP1 VL x64 MULTi-22 SEP 2020 {Gen2}
cb0e638fb51c5f1f37df66291d27659cc665c646	262431	3	The Talent Myth PDF Manifesto -Legal-Ups
cb282ebd76da02f5ec436b018d3f5300a32c2c5b	2156903448	2	WandaVision.S01E05.Episode.5.1080p.DSNP.WEB-DL.DDP5.1.H.264-TOMMY
cb8bbceede66a36f6b8a7989f2261d36b2e816ba	229042731	58	170929-熟女的性福生活在酒店自慰口交-3
cb92dbd38826559e7ff97a918d018899554ec1ce	158660218	449	[Marui Maru] Hattara Yarechau! Ero Seal ~Wagamama JK no Asoko o Tatta 1-mai de Dorei ni~ 1-16 [Digital]
cbdcb0c6cbf09618649ca48591431d277c4e62f8	1415227922	17	heydouga-4030-1743
cc163d790bc2da8243af6f3db8a74705997f705b	409741096	3	Conan.2021.02.04.Bryan.Cranston.WEB.h264-WEBTUBE[TGx]
cce4edb95683fa3f3a67a3f2e3b5d44d241b5b66	4461468295	8	[HDzone] When Heaven Burns X.264 720P
cce85c07fb8ed0cb695bb75093c0db790409ea67	703155104	1	WandaVision.S01E05.On.a.Very.Special.Episode.2160p.10bit.HDR.WEBRip.6CH.x265.HEVC-PSA.mkv
cc83bd56f58e32f665db62f4706259b5b3accc6f	187501388	5	最新2018网红尤物爆乳麻酥酥哟VIP会员版之白色綁帶诱惑 超白嫩爆乳 极品无毛嫩鲍 高清私拍39P 高清720P版
cc6d628618dd754e4de47ae37379a5b641f08679	22538672	2	Internet Download Manager (IDM) v6.38 Build 5 + Fix
cc60ed0973c558d46e5220a1d86878a6c9fdfe7a	500760903	2	1By-Day.13.01.08.Daisy.Dolce.Obsessed.With.Showing.Pink.XXX.720p.MP4-KTR
cc3f7bdbfe3d1fa0c5d8de8d68336fcfcca1408d	421265864	43	keeley hazell杂志视频合集
cccbccae5baf4d50f4aede8f9780151ed90a70a4	117525690	24	Senna
ccfc6b1c79e72f613d57a295237793c9a919b5ce	1393944604	122	DOKS231MP4
cc957555548138b7e1b217b6a050aa502842dede	157218714	1	Yakusoku no Neverland S2 - 05 (1920x1080 HEVC2 AAC).mkv
cdf52e62b748fb2e72f1ea0acbb6daf6a32b7526	22537951	2	Adobe Photoshop Lightroom CC 2019 v8.2.1.10 (x64) {B4tman}
cdfc526769d9d5dd21ff3703765cfb1f35038738	2940141686	1	Hrdinsti luzri - Heroic.Losers.2019.1080p.BluRay.CZ.dabing.mkv
cd4dadb589c500c18ff3b0ab00bf99b82a60f648	111895275	28	和河南某少妇在酒店打炮，表情淫荡，露脸吃鸡吞精
cd9156592ccacbc8ae121c9a7b3b80c39a1eb853	5746368298	1	The White Tiger.2021.WEB-DL.1080p.W.mkv
cdedbf0a62c40a6c1fd426eaa059eb85acf1e5ba	11898966088	1	The White Tiger.2021.HDR.WEB-DL.2160p.W.mkv
cd7a9f17a4eb7cccf5bc62d8d90cc88208abb2f3	11301926912	16	Ищейка.s05.2021.WEB-DLRip.Files-x
ce6fbb4d8b15994a716e416856fc1bea6493321f	10079004	8	Black.Octopus.Sylenth1.Commercial.Electro.House.Sylenth.Presets.TEAM MAGNETRiXX
ce4ab0b15d8f7f3db75c3e5ed2ed6384f3db1a31	386364052	79	MP3-daily-2021-February-04-Rap
ce82877747a8f4a6f975b7c06cffde6262438569	223012330	6	HGC_2129
ce1aa68adb15a3615a92a5f60d4a59f34dedc0b9	238493713	1	Kenzie Taylor - Axel Brauns Dirty Blondes 3 042219.mp4
ce81329fe4ebb8482bbdb123eb30467142d3c4bf	3253576605	2	Born.to.Love.You.2013.CHINESE.720p.AMZN.WEBRip.DDP2.0.x264-PTP
cf320fd073c935f30395901315597c88cc0f2024	315740719	8	Zid.2014.24Bit.FLAC.Lyrics.DDR
cf153eab3b801cae1f4045d044eb2c0835048737	212378677	40	Владивосток (1989) JPEG
cfdf982a2d66a243990fcfe8da720ecc253d1e44	351205503	1	Modern.Family.S07E02.720p.FIX字幕侠
cf143ab19dfe2fbb60aeb8aa1329a3ae5344c6a1	1971035199	14	日本极品嫩女优破的套套及不拔出内射系列4《牡丹在线，强力推荐》
cfd42b1e79dc67ee7836441060254c57e9140fbd	10735117	3	Bodyguards Guide To Street Fight Self Defense Effective Basic Methods
cfce77b31597d4aeaae440d94fc213acd0e8d3ee	417758905	12	Torrenting.com - BrazzersExxtra 21 02 04 Sofi Ryan And Chloe Amour A Thr
cf0414c0701914c64a8a171e4f70cc482b80f4f9	585189334	2	Lost Highway (1997) 1080p.BluRay.x264.Full 553MB
d0f8ca4a265bf5d5849762739716ef480b4a504e	54702821	1	Tech Jacket 012 (2015) (Digital-Empire).cbr
d06e279c885967168dde420559b84550516e3951	22538689	2	DOOM Eternal - CPY
d0c46797c57d1f9bef9e908d175f7485508d13b5	641327011	46	Дабо Кристель - Сквозь зеркала 03. Память Вавилона [Броцкая Леонтина]
d0431a5a5c95c1a54be72fa3725350be3ddcdcea	1670906759	47	G227
d1f4eba24724142ae94031fdac82fe0bff653403	1380713426	5	450OSST-008
d1600821267bb07246f213de7262a6d8263a9743	575855266	5	165 胸部很漂亮的人体模特肖莉宾馆大尺度私拍多个摄影师对着全裸不同姿势的她咔咔拍个遍1080P超清
d1fc2b203016edee439965205e3a73ecbf00cb62	863193606	1	Mud.Mountain.Haulers.S01E02.720p.HEVC.x265-MeGusta[eztv.re].mkv
d1e45ae93d04ca24cf55c880dc5111410bf35d6a	1086543423	31	【入微】VENU208
d1eb7781117bd20856dddb29c3944a628915658d	2162163724	5	NTRD-064
d1e0cece40bbd8245b08459d56c94077eb578597	230374984	1	[ASW] 2.43 - Seiin Koukou Danshi Volley-bu - S01E05 [1080p HEVC].mkv
d1df63547ca4191fa13d71491556ca38391aaa99	151730836	7	www.Torrenting.com - Impractical.Jokers-After.Party.S01E03.480p.x264-mSD
d1ecef2b4f8918e6442f3759e6cea3d3471a2099	12444736273	90	美好生活.更多关注微信公众号：懂你的资源君
d1a8845456317621153a97052d1e241fbee137a0	10935697896	1	HODV-21552.mp4
d1334676501de9dface6ca6bd347e2642bb8dba3	28359284841	1	Gods.Of.Egypt.2016.VU.Bluray.1080p.AVC.iTA.AC3.5.1.iTA.ENG.DTS.HD.5.1.mkv
d194ef1e286a4ebac6f71d482e976408579cffe7	1584775190	93	DV1468C
d2fddc7de14e07aaaf1bb72ddb2cb51d9d33f515	1132241257	7	Hegre-Art Submissive Bondage Massage
d20b8e9787e6d053ea66b5670a6c2e28e40a801b	378695600	9	VA - DJ Mix Top 100 Vol.4 (2016) [MuSi]
d20d170ca74c3aa2bce3f3a0b7114b00472f4a1c	18459041	2	KMSpico 10.1.8 FINAL + Portable
d266d965d46f17d82a2d215b391e128cff894c36	19519777013	3	异能.Push.2009.BD1080P.X264.TrueHD.7.1.Atmos.English.CHS-ENG.Mp4BaFans
d2c1d58ea63228d83a1267f479a8d161573e6a5e	14527926272	95	爱情悠悠药草香清晰版
d222405f933ea2b4fbbbd12fbef63306353556b8	45535014	2	FrolicMe.14.08.25.Tina.Kay.Sexy.Solo.Moment.XXX.720p.WEB.x264-GalaXXXy[XvX]
d25cc4e3d9581d8acd8f6865e5d0c643758e19c4	1977615077	9	10104050
d3feaf60baad771e517f164954a813a0e8398577	1591973042	6	UKG2TLG629
d366b29abc965f27ccea77b9008325d48903f179	1190787072	1	El Curioso Caso de Benjamin Button (Spanish) DVD Line Xvid-Mp3 (CentralDivx.com).avi
d3182fb5e74a8d72b3b58843e5e5e75ce980d782	1217099292	6	25454_by_waikeung
d3b01b6b95a6036d2bc7da53e141e54b80d50ca4	2263059441	7	Big Tits In Sports 14 NEW
d362017fe4be96a68df385f99e47be79790fa1a8	1287998608	60	49.pppd653
d4742d7aa7e0b650da6a082d917f3bd748739c0d	383731626	58	超强推荐 花女郎吴沐熙无圣光套图+视频 第二部
d4e8c810450eda985b76a1210e205bf52fbbc811	1475761247	8	wusu33@第一会所@腔內崩壞大量精液注入 川愛加奈(Kana Kawai)
d44716c718d9ea75f4581a3b1cbf60da34374c26	2051598150	1	ExploitedCollegeGirls.18.03.08.Kayla.XXX.720p.MP4-KTR[N1C]
d496374b8d96154d80068a617b863b14132bf63a	887671393	65	zmen00030
d4a2ccc3a034d0ea2ea45579d2ba8548fc39ec99	303912350	2	DigitalPlayground.19.07.12.Alina.Lopez.And.Cecilia.Lion.Out.With.A.Bang.Episode.2.XXX.720p.WEB.x264-GalaXXXy[XvX]
d448217d436cfba08a1fd30767cbec39e78af1af	573214524	1	[HorribleSubs] Folktales from Japan - 139 [1080p].mkv
d499c78dbfa1147b81b88fcd2f2278323b95b0ea	4872612494	4	Windows Server 2016 X64 Standard ESD pt-BR JAN 2021 {Gen2}
d55c03e99ea73e5574140fc63eb29c23a2dfcc69	1430825103	1	[Golumpa] Fire Force S2 - 19 [FuniDub 1080p x264 AAC] [05EECC5A].mkv
d5c6fd7f91ce5c96973d60434705277f7d219e6d	322596519	20	VA - Stereo 2020 Remixed III (2020) MP3
d547505008d90624ee3df2fdb07d6433a1bd3a74	722626431	8	IPZ-591C
d564e7bec6d2fb258613a18d55fcce8bbb80049d	549848485	2	Phantom Brave - The Hermuda Triangle (USA) (PSP) (PSN)
d53fb283d27d72e8cd4227f2a9642d941feb5bab	1795066281	6	[Thz.la]heydouga4083-301
d69176b9326c216306c5b4f8902818bc6ce54528	149920	1	The Haunting of Bly Manor season - Downloader.dmg
d680a38ebbf5efa40ead8a3c4267f7c314d4c638	845796137	1	My.First.Pee.Drink.Stacy.Bloom.2on1.Balls.Deep.Anal.DAP.Pee.Drink.ButtRose.and.Creampie.Swallow.GIO1731.05.02.2021.Legalporno.hardcore.anal.dap.piss.pee.prolapse.creampie.swallow.interracial.threesome.mp4
d67dc78d074f2071c260e7059fb8d2ec03dba753	901671673	10	8400327@草榴社區@HEYZO 0084 男性內衣專業銷售貴婦人的銷售技術 門田まつり
d6f198260f66268db7a3a6317556faeb4f278a6a	134719125	121	来自20世纪的姐姐
d6765a82b14dfea064b13db9ce1b12d41ae9ec82	136354910837	99	Ariana Marie Megapack 2
d6ccb9f293c12d96e4c94c2c87b71e244d31ff93	119662592	1	HAREM SCAREM - Slowly Slipping Away (1991).mpg
d6d1bf594cf66ab5073b0f5e556e7bc9e88c22d7	1106660750	44	CHN-061-MP4
d6f533d8e5d33576c0f647c540694b548cf989df	942823536	62	07.htms086
d6e975686eb4f1aecdb75e9bc31deb97661298eb	166180344	19	Andrea Bocelli - Vivere - The Best Of (2007)-Universal
d65355f492a3afbf780d219a23f94be25810c7fb	4001826386	1	Glory.50.Super.Fight.Series.720p.WEB-DL.H264.Fight-BB.mp4
d7db59afe58c961689d62322b28cf0fa50d99714	290811209	4	16
d773b72acea879d73091bd301ed57998a10f5f27	2698510348	5	HD-pts-410
d7c4d1332241273c60f44bf30a3c7d2f3acf0029	7994611940	51	CAPPV-112516_005-FHD
d763ba842de7bbbbcb0f985e106c2a004482d135	1027994366	65	STP11273
d716b3c102bd4b8941ca907b9e5b03c00bee663f	1256977443	2	#_ipz206
d7d3d670154ebb641ff3ff82dd0cb4e67f0d5273	244580649	9	E257
d705fec019c1817e29b202b0e4a12be735f05476	128496968	7	www.Torrenting.com - Judge.Judy.S21E195.I.Dont.Have.Rent.HDTV.x264-W4F
d78a4fe0371e6951ccfd1351030cee99d191f491	35238546632	99	__empty_name_field_in_info_dict__
d72b490c02ec99289098beb02f0343c005282dcd	1490757656	4	[ www.Speed.Cd ] - The Whistleblower 2011 HC DVDRIP XVID AC3 BHRG
d8186bb9f6f5879d7579bf6abf29057651cd142b	2208561152	6	dr_vegas_1x00-1x05
d89552f448382bb889461f7a8612a2decbcee66e	727990917	23	【贴心话】BLOR-042luolitaOL!s
d8bda4c8a186771bd04b77051903699e98c3beb5	22741195884	16	The.Mandalorian.S01-02.1080p.WEBRip.HamsterStudio.Org
d86c4a9c9e5a5c4375360387af548859985781d5	293349601	11	Avast Premier 2017 v17.1 with License Key File - Full with Patcher
d80bd3c1f709c2ae713c8cc926c24b5e9252d5ed	189446791	1	(C91) [ハチゴ (あやみ)] REM X MIMI [女子力研究X无毒汉化组].zip
d99148fbd71abd31e0644268981e319553c3252c	1082739926	9	ekdv-503
d95918578afb421e25d6d6b6da577d18729ac131	524892452	1	Great.Escapes.with.Colin.and.Justin.S01E07.XviD-AFG[eztv.io].avi
d9219ddc545d1e3a13c92101ad1b31bc0be84040	1898678272	1	Street Fighter La Leyenda [DVDrip][AC3.Spanish][www.pctestrenos.com]
d919eff8573ac11eccff0ce0ad6422beac73ff62	860584481	4	Conspiracies.Decoded.S01E07.Death.Relic.of.Christ.720p.WEBRip.X264-KOMPOST[rarbg]
d9540fc6adb3ee7c5c6b96c2036b9e1950483a7f	46345074	4	Popcorn -Time 2.9.1 Win and Mac with TV Shows
d9c58433c582285369f6958791fe89716a13d77f	766759956	8	caribbeancom-020916_092
d9ec11f57c87354ab6ab6b19a1fd8026f2303781	7414721497	3	Bliss.2021.1080p.WEB.H264-NAISU
d9850a9035aced98a7ef070d40b0ddc308e12488	843975014	4	A.Good.Day.To.Die.Hard.2013.EXTENDED.720p.BluRay.x264.anoXmous
d904a3f3c783f3d350ffa33047c4bae0dc34e3ae	2625915	1	Blue October - Say It.mp3
d9e62cabb15e96a556406f2d41dd2e173c4f14d3	735840256	1	ppg-gwjwes1.avi
da49a7e730795e9ec3c9c7f4cfb645b8afb4e600	899646642	2	Burden.of.Truth.s04.WEBRip.x264.Rus.BaibaKo.tv
da43dee3a85654c6d55072f50f6f07d78f522538	22538248	2	Any Video Downloader Pro 7.19.17 + Crack
dae4a4dc3b05374d268ccaf37b0928b1844b0647	373272599	1	Hataraku Saibou S2 - 05 (1920x1080 HEVC2 AAC).mkv
daa789b61970d92d20907681d29afc7573fe3f90	1466484636	4	[ DEVIL-TORRENTS.PL ] -Miecz Zemsty (2015)
daab8749d86fddd5306b3c393a3c85ad598fa2a0	154617302	1	(C83) [しあわせまんじゅう (しあわせ1500)] ハラホロヒレハレ惚れ薬!!.zip
dab385e940fe6e65f043773ef76f53665b4419b7	1265376	1	Nexentastor_Keygen_CEKJR6.exe
db360f38861a6228cbf23d14aadd6dc832ee760e	438611750	6	www.lyrics.lol - The Daily Show 2021 02 04 XviD-AFG
dbd3d0ea14e7f2d5525a203c09e2c93199332823	11836218	3	Home Workout Routines Guide For Training Without A Gym Stay In Shape
db12d845b98083cb3c9d037f943ed80920c39933	26093666578	40	9部有码新片合集@1(140430)@夫妻交换
dbde846d9fd658d7dcce9135cd84d697b482bc65	1213030594	1	Wandavision.S01E05.Episodio.Cinque.1080p.WEBRip.HEVC.ITA.ENG.DDP5.1.x265-BlackBit.mkv
db14be970ddcd1e797a7614e35ad2f03851744e8	18679345	35	[Under Control] Lolipop (Bayonetta) [Inmou]
dbb5d577aa95c4042de046da9b7848e660b9ccef	2638704828	4	Выжить в дикой природе 1400M (2016)
db10a350b6c45931f87321472615a3e9858a5bf5	358432785	3	JoshStoneXXX.15.04.06.Alyssa.Gadson.Big.Booty.Latina.Blacked.Up.For.The.First.Time.XXX.SD.MP4-RARBG
db5ba2c99d5fbd5777a93c09e7d2cd3da65a01fd	2791512330	11	MEYD-163.HD
dc06edd2e9802f2a772dba0d3e4fe01518355343	1190403896	1	mide-463.mp4
dceeb55af80e65eb9e82dbc60b1999e632a0f457	1462994392	6	大胖猪@www.18hexie.com@Les Sexpervers 3
dca1b9b7124b995ec6ad0870e2f68ab501b1475e	2501796141	143	MIFD047MP4
dc5eecef6ffe66eeaf94333f2e9fb968189e42c2	921325733	134	Finntroll - Дискография
dd5679fceaa8fa36692eccd805ba33ddeeb72d28	1077592980	32	230OREX-142
dd10c0aacd43573c1e90a026a254a407e7975f4d	145752222	5	410最新棒子小伙和漂亮大奶女友寓所各种姿势草
dd3983e9740bd4a2273fea887f63f48bd2907b74	258502701	3	誓盟02-04
dd48a85d9c4aceacee5dc068eb7bf06d1c399eec	2293396090	3	유 퀴즈 온 더 블럭.E92.210203.720p
dedea27f217456e77207cf7cb2a224c86aff4907	392429795	15	369179@www.sexinsex.net@绝版台灣AV老片~空虛少婦性告白 (國語中英字幕)
decd5f37eab1365631a39a0f57663b6897ea6e09	936510106	60	15.TeensLoveAnal - Brandi Bae - Rogue Tennis Ball Produces An Anal Racket
def08a92d5a76fe20c6a475787b063b747e87538	986354982	10	美パイと極上ＨＩＰ- 小泉真希
dee797f4e2f81457fa10520f288b54473a674c45	525073667	1	Kendall Karson And Johnny Sins - Inside Nutleys Asylum Part Three
dededfb4ed9647387c80678546fac4e1489ff17a	2496644909	52	CAPPV-101615_393-FHD
de61240ed51aaa4d9b31367499411fed594ca490	11168907789	6	Crysis 3
de882497f69bbb546ebcc8145452f181941580c4	273060404	35	土豪胖哥酒店高价约操学院派高颜值性感大学美女,美乳,身材样貌堪称一流,激烈爆插逼太紧女上位一坐就痛 [428MBMP4]
de90a190e1007948c819dafb23a1514c699022e9	735020860	1	[Golumpa] TONIKAWA - Over The Moon For You - 12 END (Tonikaku Kawaii) [CR-Dub 720p x264 AAC] [996BBD3B].mkv
dee60b23c031d23e3bc19c84146d61b0344166f5	956691596	4	Servant - Temporada 2 [HDTV 720p][Cap.204][AC3 5.1 Castellano][www.PctReload1.com]
df1701d5f924a6992cd54ca2be7fa850dc07de2f	385779477	25	VA - Jazz House Classics Vol 1 (The Finest Club Uptempo Jazzy Tracks) (2014)
dfdef953a4d0ad66e18efc60672d6b9af3da9439	223339751	4	[ www.Torrenting.com ] - Peaky.Blinders.S01E01.480p.HDTV.x264-mSD
df572d1ad05e81eb8aaf17104797e769f99b003c	2931253248	4	Jules Jordan Video - Breast Meat 2
df57d5c66cf57d74f291f980b5c0c4e30863713c	743248902	1	All In with Chris Hayes 2021 02 01 1080p WEBRip x265 HEVC-LM
df71375d60eebf76565c14e4a4d1f26b49602446	85876448	1	MODERN WEAPONS OF RUSSIA^V
df056bc5ddadf46b5d280b206dd8c56d6f1f998d	906746327	4	Hosts.2020.WEBRip.x264-ION10
df3ed1ce06a8492f8d4851ace8d9328807116fa4	111421919	4	1994, [F.L.Y.] Feel The Rhythm (CD,Maxi) (74321 18640 2)
dffe3dfe3a3725eb1d4f7e6e6ae369d9a676aec6	1463956465	6	www.lyrics.lol - Swamp People S12E02 XviD-AFG
df31b8ee5430db406624bf88e5483ec92cddc4db	1402939952	7	Boxing.2019.02.23.James.DeGale.vs.Chris.Eubank.Jr.720p.HDTV.x264-VERUM[TGx]
df453ecb322c590cb0be4f3eeacaa99e2bb583e6	930087541	4	A tres metros sobre el cielo 1x08 [720p][Latino][wWw.EliteTorrent.NL]
e066f2e817b881a2dd9e5f907575951aa8306020	4252260767	37	Oil.Overload.10_Jules_Jordan出品_超量精油_10_720P
e0f0033afdd655af666170e0f02d559f91268d37	1680867679	81	虫ER@第一会所@Custom_Udon同人cg动画高清合集
e0976efb9141f78ba2e13f18bac6a63f0c74697a	151777822	28	露脸操逼大学新加坡交换生，技术很棒，身材真棒很多高难度姿势
e005fc15ffeb5fe628de511c7b67e21ab21accab	1710558493	9	第一會所新片@SIS001@(G-AREA)(410seria)せりあ
e070dde4b207d85d191508fbd8f491d0d621b7e0	16936149	3	Learn And Practice Python 7 Days From Zero To Hero Step By Step
e050feb19372a849e0da82519608cc9a849032f3	2870619521	1	SOUD-026.mp4
e1306317312504b2aeb67bf19a265cd209171000	15276919951	8	Battlefield.3.zona-leros.net
e183581bb5332d9fb94a22797b4f914928ada917	1607115191	11	[JUY-060]
e157975dc506fafb4f957958163f47c51adf9f3a	303100960	3	BustyBuffy.Lucie.Wilde.Anal.Sex.mp4.24.november.2014
e1ea96303c03c10bb18a3c9ed43a4dc9d2c7bd5a	732295168	1	Vengerskij.nabob.1966.XviD.DVDRip.avi
e1e35bd3052659e7c78748c0d7dcb8479ec67260	2651661943	3	Resident.Alien.S01E01.Pilot.1080p.AMZN.WEBRip.DDP5.1.x264-NTb[rarbg]
e107b00cd3623911d12361fdb4890864afe87d76	380867807	3	Cesar.911[S01E02]Boss.with.a.Bark.720p[2014.03.14]-Junoon
e161697a057e1366259e1e41ba6022ccc8f124cc	783433574	7	www.Torrenting.com - Escape.to.the.Country.S18E62.720p.iP.WEB-DL.AAC2.0.H.264-BTW
e26ddac754c46a38fc9ca5282f68c7aa4707c903	1044901376	7	olo@SIS001@n1048_hd
e2ac0d30370ff3709284e7c2d64843fcaeb12917	2018218926	3	DASD-158
e25b054d03bb2e89953aa7691e949d6835a47f1b	734442376	1	MARPLE_10 - Nemezis.avi
e2ff93966e2ac0246cbfd951062f5fb2360fdd57	3218489799	2	The Best Of Big Real.DVDRip.XxX
e244fcbdfc9aa93190eedb002ff6a5dca5849658	2676063139	143	HUNT445MP4
e21859c725962a1aebb4cdd00807a48c455b8dab	406783967	31	Lynda - Business Writing Strategies
e2c0d087d93a2b53d033f0f662174e3e55bd40d9	4853311853	3	DigitalPlayground.16.04.07.Infidelity.XXX.720p.MP4-KTR[rarbg]
e3ad00c513ff471e947a8240e99c4fe0d818da0a	88024714	12	Torrenting.com - WankItNow 21 02 04 Sophie K WankitNow Workout XXX XviD-i
e3cf107f433b73df9ca745ddf6c94453eaeed019	1482760021	35	boy100@www.SexInSex.net@MCDV-37 メルシー 美脚の誘惑！中出しレースクィー 真琴りょう 美人妻 8头身 身材超棒
e3752f6c7de85a3c393dd4fa7bd3baf63fbf231a	898000812	47	200GANA-1911mp4
e3bb6f556e0e0193e56120c4e196a121b7a2313e	530177043	1	Swamp.People.S12E02.480p.x264-mSD[eztv.re].mkv
e3dbab0baac026aedf4a8980ff7653fb7d43db59	442769086	1	GGG – Luna Sperma SuperStar (2018).mp4
e3a6ecff20fc30aead83d398975834268f30045d	10515132800	5	10.08.12.The.Kid.1921.Blu-ray.REMUX.H264.1080P.DTSHDMA20.MySilu
e309573faa3394c0bf231960dcd140df245b9099	236071518	34	Creating.the.Queens.Gambit.2021.1080p.WEBRip.x265-RARBG
e34975e0f6f805a1f4550b980c5bedb8a0c1a7a5	669836314	11	HEYZO-0941-SD
e3cf06d6cf4bfcb7f96b6adff255e978f53b49fc	2189650630	10	梦幻天堂·龙网(killman.net).720p.魔鬼的替身.双重恶魔
e4eb93c0d8a7ca1baba3f5af11ee4f97dc77d08c	273242107	1	La.Promesa.S01E41.WEB-DL.x264.AAC.BGAUDiO-4PLAY.mp4
e4287b85d1d2cf4afee09b08fa4098a0321617ac	1609415324	1	[CLRSCR] Frankenstein no Koi EP01 720p AAC-AOZ.mkv
e45d0d3a6c1b9a78cec89c4e375829177f0db5bb	752615778	7	www.tskscn.com（虽然30但仍17）
e41aca3b60c1b927e942a9ebb72bdab45dd6a8c3	829025842	1	HotGuysFuck - Desiree Nevada 020521.mp4
e4997cd956a45606dfaf119145acd6805dbecbd6	667280295	7	天堂素人约啪系列-手机搭讪附近大四丰满漂亮的大胸美女,看见在拍摄有点害羞,插进去就露出淫荡一面,对白精彩!
e49ce4bdb0defb880f008d34a8a902083f212fd8	1378739369	3	Resident.Alien.S01E01.Pilot.720p.AMZN.WEBRip.DDP5.1.x264-NTb[rarbg]
e55a50fadbb89d4f68454ae260bdc54733704906	1630176777	7	www.SceneTime.com - Bering.Sea.Gold.S07E02.Fear.the.Reaper.1080p.WEB.x264-CAFFEiNE
e5e9f4f2388476a81814bb07914f39cf234b8707	672900415	55	Her Shim-Cheong (Её Сим Чхон)
e529b7a0852baa1600c0ae662a838a0cd965cd11	22538635	2	Worms Armageddon [GOG]
e5ef5cbf49c240ffc0be2883dde6dea2ea4c6c4a	4116523435	3	[2022.DEV]搭訕人妻來素股竟然幹下去啦！.mp4
e5771d443fada46c73396681992efc6ad0735f7b	1502220593	5	WWW.SKAYTORRENT.PL Bez twarzy (1997)
e57686f1c175536b1a5da97c042660e102dcb584	482580715	16	Kataxu
e522ca4ed66bda9f924924b24413113cabe45389	4044337630	1	tki-095-captivating Boobs slave-09-sexual slavery and torture for a woman.mp4
e5455ebb04f6899cac0cbd14d5f20b4ba0f9119b	750256482	7	www.tskscn.com（虽然30但仍17）
e57bb682b473e81d3b71ef02479017437e9733a7	1009151558	47	EBOD300AVI
e53b5f0d8900b2ebf18f0afc85ae16a66738a9d1	72734710	12	Trivax
e5e4e5827ba8dc744a24ad1898e7c65fbb4dbedc	380648620	6	HGC_2556
e6014d621a5310d14aa2226f5866165cedec56a6	596003043	268	FuckedHard 18 - Remy
e692c9e214f735e07c23796890925731752acccd	376743939	2	06月02日最新漢化同人志合集(12本)
e6e2ac2cbf34c4534490ee3e4bbe6001f0eb2bcd	295908930	1	[SSA] WIXOSS Diva(A)Live - 05 [1080p].mkv
e641ab1427c6562050a739d2a0ed0af05f9231ec	477725350	6	www.lyrics.lol - Swamp People S12E01 480p x264-mSD
e67370c7c35a500f472c9bb8301c05fd1478e7f9	14632747387	14	Ashes.of.the.Singularity.Escalation.v3.0
e7701d59fcc2e3a55d247eb5cd900f042e65961d	1202809333	5	(cjd42)+SpeedPluss
e7a9dd00ee9c57bdf4aeba58bc18bee079d77930	2711617579	20	熊目燒飯@MAD-137
e7c139a9a7f58588d92decc424680d39c8b00362	1237799462	23	無毛恥丘
e77a5b44e50a57e151719e8d984e4bb00e50b66a	810479994	11	20-20
e76a599065869beefd530526ea75f9f5ab984f84	22538663	2	Forza Horizon 4 Ultimate Edition [v 1.432.823.2 + DLCs]
e7eae858395310a4efb962220642117efeefac96	388088923	3	BigNaturals.19.06.10.Candy.Alexa.Shake.Those.Weighted.Tits.XXX.720p.HEVC.x265.PRT
e81bb2e16d1fb870bcc6e9f9458a54e83a341117	683278192	30	27.X-Art - Kendall Rae, Hanna - 18 Year Old First Time Threesome
e8455187c123de5e2a113ecca8c8149502d29551	2366739707	29	H4610-ki210206-HD
e861c48273c49e83a81818d4226aae87d5c19986	537286078	6	Craft The World
e8169076ac673fb767b0513b9fe00e6f54d973af	17640527	26	(Futaket 8) [Musashi-dou (Musashino Sekai)] POISON-XXX (Final Fight) [English] {YQII}
e821808895828e31aa4a3bc0759288e419abe5b3	1403614657	62	26.mxgs952
e891b7c76f55903c6f6c743796d6d5307c844ac6	14723120	5	Dickgirls 8
e8f417b881b3f43f5bad17ccef54eac2d565afe0	262406206	10	TVBOXNOW 愛回家之開心速遞
e986340b0918f60a8cfca07c4b8a6b0e35dbbe04	282673542	12	Corel PaintShop Pro X7 17.0.0.199 (keygen CORE) [ChingLiu]
e9d275c4bf17c7b9a4af28f14f375bf2aa36cb20	8470549195	10	ADN21-30
e918b2539daf0255556d212f8eb34a0fda34d938	293865094	7	Lover-In-Law (兄嫁はいじっぱり) Episode 1-2 [Uncensored-EngSub]
e9d1efb5ab6201978f8437e77a646dc07b0a0470	12865877	1	[こりす] お返しはハートでね (COMIC Potpourri Club 2011-06).zip
e938cdf95f65e52a36ce3cfb1719efea169ff18d	1311643862	62	26.xvsr105
e92d9ab76336412fd8d5c2e96f26eaf18094be92	186395007	12	The Ancestry Program-2020-Tomorrow
e9b5163fb13f22ad2c7a70e90946d0ff244b619f	743257700	52	History.Channel.The.Lost.Kennedy.Home.Movies.HDTV.XviD-DiVERGE
e987aae03480df95f4f07c11cb8dff9dece90bc7	1688697545	922	3GP
ea56d85f0a5938bfb34f3e4a56753b947f677504	1018456995	16	美人女子大生生姦衝撃映像２- 松すみれ
ea916a46df5092521a1eeec85bf75be183ffdd0b	88346364	1	(C91) [むしやき!! (上林眞)] 恋する堕天使 (ラブライブ! サンシャイン!!).zip
ea1dca9453643a80b336a104ff19b7260347b015	22538779	2	The Elder Scrolls V Skyrim Special Edition-CODEX
ea19430e62881f11c89df9c00f9bded1bc2ed61d	589676294	19	【入微】大岛喜代叶 高級デリヘル嬢
eaed0a26d1111adf459fbb252d21680adc3ee626	13415523591	46	0106-国产-30
ea54d2cf407f7d0bd1ea545edb673533968de57d	904847869	1	53.zip
ea1fe2c7bc52004375e6655a97e150434a16ae85	94863507	14	Sister Sadie-2018-Sister Sadie II
ea829c7d86c39f685062bd4742d3f8c59fec14ae	1814077048	39	ZEX-254
ea0096b66901a0a89e854598aa68cfb22ffd45ba	1262320058	3	SPRD-921
eaad74856715ebea9e0d8e9fb653ea565b9c46ee	439877877	13	im520@SIS001@OKSN-161
eb3cce8a3b1020bf08d7c5416ae0ea0e8b3e4f05	4299615572	1	Space Sweepers (2021) [720p] [NF] [WEB-DL] [XviD] [AC3-H1] [Lektor PL]
eb2bcd35198dc654d20e0af52f1429ceaae8a436	126127888	12	Enimus - 2021 - Tokamak
ebd1a66b5a2373f3c2d2fda5546a75c6eb2fd84e	7608432640	26	VA - Promo Only Hot Video June 2019
ebf9506b554ae90e3933625fd450d575d7885d53	1236579726	57	27.umd571
ebd668ee8287cc1f12b9cf2178cacd9145313676	11888773171	2	Uno de nosotros (2020) FullHD 1080p LAT - ZeiZ
eb107714c3cbe1059463b1a5f6a74330278e1c84	1381287738	1	Adobe Premiere Pro CC 2018 12.0.0.228 + Patch (Mac)
eb91f5d5b805e711a2c2e9d8c6d77ea25c10a9b8	288928112	3	Home Garden 18012021
ec7123aa154e81556b093ec0b147db2079b37300	2307721572	4	机械师2：复活.Mechanic.Resurrection.2016.BD720P.X264.AAC.English&Mandarin.CHS-ENG.Mp4Ba
eccfd3df0c966b0171bf6f5b46ffdf655d035c4b	1506868493	57	35.apak073
ec116f68d3eb904524de417203d26c07ec74146e	1324402737	21	【WRE】JUMP-5027 hengbangkaraj
ecefa960df2de5a415a855e9fb54a9dad0a4b1a7	513609427	3	Clifton.Hill.2019.HDTV.x265.5rFF
ecc438edff776225210adf40854c37b009076cc4	1720884624	53	SGA064AVI
ec9e2572ddc7caf1a42f8fdc8ea3f18393e7a8db	471848140	87	062817_001
ec365414408c394ad47b7b3c821ea90246f3bdf8	166056669	3	国产骚货系列连发甘肃天水蒋晓霞2
ec2501ea0c6d514c4068d3ba6dad421b30b11efa	4513347489	5	WandaVision.S01.720p.NewComers
ed3a8d4857c6153afde1fb37cffd47948ad3e001	1415111508	10	SNIS-191.明日花キララ.痴漢願望の女 美人キャリアウーマン編 明日花キララ
edecf180fd5b20e285b7aa5e532f0534efbce622	981211759	5	0612015
eda0fd61f7a87ce2f1eddab7ae5b0e2de9b9c767	201049357	21	VA-BLUES FOREVER, Vol.81 (2018) MP3
ed628e20d08b95e052f8be13a6939d40b52e6273	153616542	5	美少女软软趴在床单上火车露点自慰不怕旁边旅客醒了被强操吗
edd37ee6edc7da9719326890fb8e247addf90278	33269343	1	LULUZINHA Nº 001 1957 EDITORA O CRUZEIRO.pdf
eded0582716e82490223ea4ed9b4f02336467f8c	988259891	1	Queen of the South 4x07 - SUBTITULADO - www.subtorrents.tv.mkv
ed3dd71d3b5aa6a21cdd541bdd8cd5d4fb4a4cba	1957132958	7	chikan@mkd-s47
ed096da002599c975a470f1c8c42e29f2995a6e2	1564105005	4	Introducing.Dorothy.Dandridge.1999.WEBRip.XviD.MP3-XVID
edb8395ece92b68b4f0031a9878a878ee8f3cfee	3900804309	4	Windows_8.1_EN-US_x64_PreActivated
eed5e71d4d65a6ce7ecb4d6190df178192b83612	801744	1	javascript-and-es6-challenges---do-you-know-javascript - Downloader.exe
ee47a5da416dbc84f9548ea96d32f0a7d5e33e16	8543869429	5	168 Amber
ee4b4920df7fe37d3d79f4c9869983565af92b2c	7257378716	51	马莉亚迪桑合集
ee3b2dfdc805add654bd08bb9dafb3115da4bd9a	976911	2	FL STUDIO 12 Producer Edition v12.2 [build3] 32Bit & 64Bit + Crack
ee483d5811a23497158af0cb8584a0b04b3d99c7	1655897650	1	MIAA-151
ef3e756e00a039bf1a8c5c695cee61b1def1ed35	2155968426	2	The.Resident.S04
ef27ef7a5727bc413719bec1700418cfca162638	9465238	1	Topaz Labs Plug-ins Bundle for Adobe Photoshop 2019 - Mac
ef111028231cb64c2aa7d63d571664c8309d4e47	194730467	6	www.lyrics.lol - Not Going Out S11E05 720p HEVC x265-MeGusta
efc87bdb9aafb1590359b08a44762dff97be7976	11334877147	17	AMA-062
efb7f8069c2875fd41f33108961f9ad651d0f1cd	2071806011	11	docp-161
ef942561b6bc144e6f84376a350be2b8f42053d1	503586037	1	_Milfs_Like_it_Big__2015_09_05_Ariella_Ferrera__Miss_Ferrera_Wants_It_Bad___480p_.mp4
f0cf916ce907223bffa3adc84f87e5f5864f0359	1275004853	21	asiatengoku-0261 by arsenal-fan
f0981d432c43e6e7381bce561fce2101a7232560	7601399169	1	Invasion Roswell. 2013. 3D. BDRip (1080p).mkv
f0b6b255044b885c9a9358301b05fa3527cc5464	1418420254	4	Mom.Is.Horny-Cherie.Deville-DonBass
f0c08fface8a8cbc6874450cb6b2262a25a39f7e	4558241758	1	YMDD-166
f0b571c2804884ae04e8c2939247a6da1cb1f5b1	756093361	54	10musume-030813_01
f10a8e6a08ec80ed8d9535fb2b2c9433d12a9307	2221341	3	Jay Bernstein_Starmaker Life as a Hollywood Publicist (Memoir) EPUB
f1e73980c0991ee344da90550f43faac8f3b5024	1700589558	29	C0930-ki210207-HD
f13ea9ccca561d4567ca066f1aebde8d3d6a0b4a	162445125	1	[HorribleSubs] Cardfight!! Vanguard G - 18 [480p].mkv
f12ab69da4d9da24997209e50c80a7b383fd5454	37542030	1	[HorribleSubs] Bonjour Sweet Love Patisserie - 24 [480p].mkv
f1faea6cdff7c8e08376040d20e3d3b0211b4b61	335124240	1	HB117---Lubed-Zoe-Bloom---Lubed-Labor-Day-720p-HEVC-x265.mkv
f10a8a5e8806768ef87dab3fb254667abf43e375	458524274	1	1218_venu-072 幻母 美母見息子色色眼神 紗奈(中文字幕).rmvb
f18c6df293cf1cb32cf1d67278b5cfaa06d53188	873836	1	Sempre ao seu lado 12 Então podemos ir para a cama juntos.pdf
f17a92734df5124c240d9a4862059a44950110fb	3402742164	1	가슴큰친구누나들-무삭제.2021.1080p.HDRip.mp4
f21047f29853e0453dfe7fc2a841cfdc73391f18	745023176	56	44.fc2ppv_668444
f2f17aceece4d2902b07d53da572192a8995051b	255672897	24	91大神九月新作-再操六星酒店高个短裙酒店迎宾 性感情趣丝网连体内衣 翘臀口活 无套后入啪啪爆操 内射中出
f2e3ec5213337cd504121308a030e5c85a1e6623	2854834015	19	Curvies_Zero_Tolerance-完美曲線_720P
f2786e4374d3e4cbf5bb6ce1c9de564962bbc937	363928457	2	[MonsterCurves] Lena Paul - Choose your poison (14.05.16) 432p
f2f0dc84a4826c65c2fe5b1ac916bcd0403d423e	51099004	1	Invincible Universe 005 (2013) (Digital) (Darkness-Empire).cbr
f2c543738fa6355cb9aeb2e18841cb860f9d9c5b	3762333325	1	我们都是坏孩子.We.Are.Bad.Boys.2013.HDTV.720P.X264.AC3-XiaBD.mkv
f2f3cee1d4ccecbdd472531785b2ebec9ce06365	7075360096	3	BOUND.1996.BluRay.720P.DTS.x264-CHD
f2e6e822704ce2b81e104a11a05d368667773a6b	178931092	18	Weber - Clarinet Works (Kalman Berkes, Jeno Jando)
f26a044f958bffcbdadde622a178037b0a6210b0	1080104573	31	Pokupo - Курс электронной коммерции
f2a87246419ee23c8e9c30e4a4516b5c87bbe9b9	1740610013	31	hjd2048.com_DVDMS366-SD
f21849ec3ef3b0c9f3f349bbeaf55f86b5db10dc	317368497	27	网友要求我干她98年武汉某幼儿园当幼教的极品性感前女友小小,历时几个月终于拿下！
f2f15464065f9d19ad59d83827f52d4c2dacdeed	661000917	13	加勒比 東京警事廳女機密員調教所 ～ 脫獄者死！
f2066c1852927cae8e3431f37b7e20d9452627f7	1527523526	5	300NTK-505
f2c56437405b02e2b1dfb8c565c95e922887def8	630041056	5	Los espabilados - Temporada 1 [HDTV][Cap.104_105][Castellano][www.PctReload1.com]
f3e5255ca677b2fde3ba88187b330f3c58ec2f0b	2294195292	77	H4610-ki210207-MP4
f3fdddff450cd71de2e067c7a0d99f04d0c1e038	229882681	1	MeetSuckAndFuck - Hook up fuck with a sassy yoga teacher - Kaylee aka Stacy Snake.mp4
f3c16b3f19ac8e2283ba2a99d2e5acf359675060	1018098803	3	Into.the.Wake.2012.WEBRip.XviD.MP3-XVID
f3bdb7e0f488d11c04de13fbba7d909dd9fb207c	1030662098	20	1023-hnd029
f384de888a4c0e7512af1a31f1f75b4af4a946c3	32935363	163	[Phantom] Scanty Doll
f30314a52bd54dd8a4d8e6010468195f871adecb	729671780	1	www.1TamilMV.us - Sooryavamsi (2021) Tamil HDRip - XviD - 700MB - HQ Line Aud.avi
f4b6faf14b1705affa6d0d6481c4365d2cb4c536	1194975749	32	云菲菲 - K歌之后(2CD) DTS [FLAC]
f44ee0617dc8a1693b0b7dcca7c25e1fb867634f	769953664	25	mc733@SMD-12-AVI
f49e2bddf82e44d559716b421ee7ee03b6bf3872	1006379152	1	LegalPorno - Young colombian slut Lila Jordan gets her first DP.zip
f45a4299214711215dc3c3d2bc7627300fe36973	33753729	6	TuneUp.Utilities.2014.v14.0.1000.145.Incl.Keygen-RePT [D_EViL]
f4bfffdf686c6b23cd140020aaecb3f2d8613e76	23107897019	25	Seven Seconds - Temporada 1 [HDTV 720p][Cap.101_110][AC3 5.1 Castellano][www.descargas2020.org][www.pctnew.org]
f440749e3a8fc87353e4ff666a419da10dbb9792	10617744	1	The World's Greatest Erotic Art of Today - Volume 3
f41bf5706e8373413c1467f53f62b7a63ce90493	801744	1	Lynn Hagen - Downloader.exe
f4bef202f066cf08fd9963fb0089d6d4750071e8	26203308986	1	War.for.the.Planet.of.the.Apes.2017.2160p.BluRay.SDR.8bit.UHD.4K.BDRip.x264.Master5.mkv
f4c5c558b8d9db7a5b732734c6f56b58d6c322fe	1018860185	1	Strange.Angel.S02E05.720p.WEBRip.HamsterStudio.Org.mkv
f57e20b6b344e65b57bad8e806ae85c98ab4a220	2538972	1	[ebook - ita]Tecniche di allenamento, fitness, body building, palestra, massa muscolare -.pdf
f5052b51d509515a9fa7c1c4bbb0cbe0d5be1be3	283368524	2	WeLiveTogether.18.08.26.Bailey.Brooke.And.Sloan.Harper.Caught.By.My.Stepsister..480p.MP4-XXX
f6a3f7f192c5b2832b04c3072411f9e6c1c2e615	1431001919	83	RECB057
f6c59a4c29592069878ed5716785d2ef4d95581b	7921480412	3	Inferno.1999.1080p.BluRay.x264.DD2.0-FGT
f6710cc19fc5ee144961ddb65114129a0346211f	596771771	16	202-4 (5)
f6d4be8701b142ae5ab03a02795db0e8616e7c42	903308516	33	AKID-024R
f63baa9b80070f85702059139faf09fd6d70ec58	577253461	6	www.lyrics.lol - Conspiracies Decoded S01E07 Death Relic of Christ XviD-
f61510b268adfed85f12e886639655e5177abf60	8924764	5	Adobe Premiere Rush v1.5.12.554 (x64) + Crack
f6df024372462e96b8a6b03941955bf247de6c7a	10340998	1	QuickLens_2.7__TNT_Torrentmac.net.dmg
f6b90748006861c402123be9b5449ca919ecf487	713973760	1	Y a-t-il enfin un pilote dans l'avion.avi
f64e5c71f670d721b8d9c7f0f20074c43fd3968c	5656744068	52	El_Cazador_De_La_Bruja
f6916d97b4071e2b76f2d83c3350aa6155f38ace	1985494947	2	DmC.Devil.may.Cry.Vergils.Downfall.DLC-RELOADED
f7df18f094cbad78a0af7751fef767dcc8357d1a	4494562074	1	se.15.09.24.aida.sweet.and.julie.skyhigh.bf.dont.matters.mp4
f7ac691d48b557786d4b71de02bcf2c38c342e2f	22269041	3	Plan Be Awesome Inspiration For Your Awesome Life
f797b698bb22c6424249d5bf06727b2dffc9d76b	162922496	8	Raven Sad - The Leaf And The Wing (2021)
f716151397a4183004e3a11eeb0acc0ddadb8488	2314054144	1	AP-297 昼下がりの人妻はマッサージ中にカーテンの隣からセックスしている喘ぎ声が聞こえてきたら、実は.mp4
f76f18e35041782f6918435a8c59d2a03c1c61a9	2084516930	30	20.sdde539
f75cfb0d16f4bccd5fb2f5a54ae9f901796da1d5	394986487	41	Solo Avengers
f88b31be6f03e98585166ad476a906eb93819a06	2512415395	4	GroupSexGames.19.02.03.Ello.Ello.5.XXX.1080p.MP4-KTR[rarbg]
f81c234d9315939bc58b27805c33ff018fc29a5f	3922607718	15	[99杏][SSNI-894]Jカップ女優‘鷲尾めい’を絶倫素人宅に派遣して神乳パイズリで射精しまくりスペシャル--更多视频访问[99s05.xyz]
f894f74fc4d4cdf4fd41150b947a836c0dd36763	1532975920	31	SDAM027
f864a78f8ad048c11d127f119716269561398374	725484682	1	www.1MovieRulz.com - Chalte Chalte (2018) Telugu Proper HQ HDRip x264 MP3 700MB ESub.mkv
f8274a4fec5e26f37b364522bfca2f776f8fb18a	93173302	14	Dansband-Blender-Ängel utan vingar 2016
f8739c889b37c5acdb397ce2adab587a94a0a4bf	98527009	1	(同人誌) [我流痴帯 (Tana)] Aki-Akane -後編 II- (ブリーチ) [スペイン翻訳].zip
f82ecda9dc79eccc8f3aa8426f560cbb89fe0fd8	674183946	18	roselip-fetish-0917
f8e1de1a23a8680f8e4868bdee8ef9049243b0e1	64624649	1	promods-me-v251.7z
f8826358aa6e9b382037bc922423e1204cfd31e3	2710085852	17	Shinedown - 2021 - Us And Them (32-96)
f90a3eb4dfafc973aedee862e9acbdb72918275f	1674463666	1	Kin8tengoku - Lauren Phoenix
f9fb5d59435c909d83b7e215f1076e5960fdc569	2490036933	4	TmwVRNet.18.02.13.Antonia.Sainz.Busty.Poker.Dealer.Shows.All.Her.Tricks.XXX.VR180.1920p.MP4-VACCiNE[rarbg]
f9d587b5214b61fa3c321a73775f0a9e1a4518b6	8199443948	10	Werewolf - The Apocalypse - Earthblood [FitGirl Repack]
f94f1b3902abf93451db151439ea0a9637cd6eb8	108205871	1	Focus PL 09-2015.pdf
f99e06b1b8c6973ff2a6af0ff5aa08a82946f7ce	1187575933	2	#_gne019
fa5a7e47d82904e7f70c7ac261e3286082672e25	1051701	1	[ FreeCourseWeb.com ] The Last Winter of the Weimar Republic- The Rise of the Third Reich.zip
faf18bd16b12d94ef151d24c7d856950b81b222c	5029186364	416	GTA_SA_Portable
fa4782e27264b8ca7305adda8227e4873a0ffd38	1767665143	9	第一會所新片@SIS001@(天然むすめ)(082815_01)素人ガチナンパ～泥酔いEカップ娘を持ち帰りしました～河合あずさ
fa3930d94e4808072c123cd4de87a049b11ad23f	7434728048	19	The.Curious.Journey.Of.Chen.Er-Gou.S02.2016.1080p.WEB-DL.x264.AAC-HQC
fad94409bce039706d9f3021feb5c232546e0ea5	15407501770	15	Empress.Dugu.S01.720p.2018
fa50a0fff2f08e7c6b9e067db05791a8c0cc51de	1505208207	17	上善若水@www.sexinsex.net@18OnlyGirls.Jada.Discover.My.Pussy.XXX.1080p
fa003f3921167d5a9ae317219a49b6efbb6836ed	56159147	1	Chronos SOHO Business Cards v3.0.3 Mac Os X By Cool Release.zip
fac4fe7d824337896a48890cd9d45e8b296ea1f5	1413480469	23	n0863
fa31b3f3675b7c09c6ef63bfce01fdfcedeea0fa	760479830	27	2021-02-06-2-5
fbee233b8c16f62540801a72d420795b6145b582	1601460373	3	Beaches.1988.720p.BluRay.H264.AAC-RARBG
fb89a6e534ca1cce148aa58813f0c73d23e82bc6	1026592768	1	夫の目の前で犯されて(2007.03.07)侵入者3 NadaZun.avi
fb5011c6dd03a3af16e942ffc2e83e740c54dfd6	134748436	1	Killer.Cases.S01E08.480p.x264-mSD[eztv.re].mkv
fb6f6620f94cfd0e6e12c465bf2af6a6342e80da	195398101	1	Nyoshin n1708 女体のしんぴ n1708 しおり - 自画撮り自分のカラダの説明書.mp4
fc4a652b4566bc18cb6e41ab753309ab1eae130d	673578837	2	Mud.Mountain.Haulers.S01E02.HDTV.x264-PHOENiX[TGx]
fcfc4c16b007397be25c595c54ec3e9e395d9939	888662147	2	한국사
fc86a447267481d7fb3f8ee8d528c2edce14d652	13144844	1	(18+)珍藏版！机械调教！附带番外！.rar
fce537928990d4e6363a8b1079a9ab360859226c	180323047	1	NFBusty.18.10.26.Kayla.Green.Dive.Right.In..480p.MP4-XXX
fcec3a9959be13be49d5888f75d0bea6ba560b75	184096266	1	[押井零] 肛虐授業.rar
fce6868b943c5315da5505498461ea904858d596	3349475480	1	ABP883.HD.zip
fcf802fb8426948a1178659bc50f7dd784a3729e	15122036782	95	[热血长安][2季全]
fc3bde3417918a4a6e28518983002b85650623ad	1960686238	1	Reality Kings - Teens Love Huge Cocks 3 DVDRip.mp4
fcbb652dd4b1f0611fa628488441c301c5ceadda	22538645	2	Serato DJ Pro v2.4.0 Build 1999 + Fix
fd93b974d42ed747c673533adcf9b051b287941c	1023879567	13	RBD542
fd41a16ebd02fc0c5f9ad73edaf7423269aecd5b	1175986024	21	【入微】JUY225
fd99d67ffebe4ccceb0d42b24d14c9ab2289ed8e	299600600	1	NakedPapis - ASAP & TOO Much (09 Dec 2014).mp4
fe9dcb52cae02872c8aa6a17b8ca6b1cd7254d0d	1103119082	1	Mud.Mountain.Haulers.S01E02.XviD-AFG[eztv.re].avi
fe559c164684f46b191dd335bec2c3392ef81647	592004273	1	GCJP065.zip
fe7267d408fcd3bb346b9c64b19c88c65ab96167	1051722189	9	一本道 090112_419 上条めぐ 「スタイリッシュくびれ巨乳」
fe6d043c47167301b8db6065bf1d012a31ceb1ac	40777391	6	www.lyrics.lol - Comedy Central Stand-Up Featuring S07E10 Brittany Carne
fee60949cb0e97e384dc6faf7548488d4e1de4fb	1394698801	100	MIAD710
ffde0ea041fc4a9dd78e79e8216d8abd920f9203	354728357	3	AnalScreen.Crystal.Rolf.hd.720.2014
ffebe57ba3cc472f4df9a695197ebd0a541e6b12	1219774546	1	Megan Salinas - Megan's Hot Oil Massage.1080.mp4
ff9caaef437b8332404880cc3499fddf2a83d135	2570737590	13	HEYZO-0773-FHD
ffc35bce6e14d6b1e3da317742988ec7a2702f90	608536406	3	Sexy Teacher - Sora Aoi
